%nprocshared=4
%mem=8GB
%Chk=IWBOPFCKHIJFMS-UHFFFAOYSA-N_conf_3_0.chk
# opt=CalcFc B3LYP/6-31G** SCRF=(Solvent=water) scf=xqc 

IWBOPFCKHIJFMS-UHFFFAOYSA-N_conf_3

0 1
N 4.336575757569949 0.09997304565777436 -0.6184777280239144
C 3.3186162707282043 -0.9497082114944118 -0.49612726487092773
C 1.911566159891265 -0.3513647073363417 -0.37362879341296107
O 1.8407369955893957 0.4127494603057447 0.8378278902803338
C 0.6627343374848171 1.2232008606354654 0.9219045476961707
C -0.6055730790335181 0.40817114925692755 1.1901241757314944
O -1.099863188628277 -0.13585571694320317 -0.03826341338245273
C -2.251148014313885 -0.9716899057747131 0.1376284606046008
C -3.544399416798937 -0.14819522217101122 0.2324275759182561
N -3.7670310147617316 0.6333028062650639 -0.9855656333492864
H 4.163620460782004 0.7763490667940846 0.129346958073655
H 5.253649049412147 -0.30150387781467936 -0.4329831774054832
H 3.5400174815731074 -1.5415552555080216 0.3989806102114578
H 3.3732766785634354 -1.6075243189307769 -1.3687987947289133
H 1.6921023244340239 0.28291525999166545 -1.2404175089747977
H 1.1862460490964906 -1.1693884258511786 -0.32896977384654524
H 0.8271759691650551 1.8976337178553517 1.7686851504744576
H 0.5687066083150635 1.8354180215810558 0.01779336044876172
H -0.3886753177606663 -0.40629951403913606 1.8899669630711955
H -1.3676472996180233 1.0680001954789295 1.615536910730625
H -2.302031106328284 -1.63414300872523 -0.7338553697446724
H -2.1292723543437786 -1.6086049512652272 1.0213383330480643
H -4.397769820295938 -0.8148844255026167 0.39069572444307976
H -3.491932027537762 0.5398330699195119 1.081642589710297
H -2.8877857173078536 1.0900684552825857 -1.2380343885389664
H -4.441895785876632 1.3731024323325514 -0.802476391624865


--Link1--
%nprocshared=4
%mem=8GB
%Oldchk=IWBOPFCKHIJFMS-UHFFFAOYSA-N_conf_3_0.chk
%Chk=IWBOPFCKHIJFMS-UHFFFAOYSA-N_conf_3_1.chk
# freq B3LYP/6-31G** SCRF=(Solvent=water) volume NMR pop=NPA density=current Geom=AllCheck Guess=Read


--Link1--
%nprocshared=4
%mem=8GB
%Oldchk=IWBOPFCKHIJFMS-UHFFFAOYSA-N_conf_3_1.chk
%Chk=IWBOPFCKHIJFMS-UHFFFAOYSA-N_conf_3_2.chk
# TD(NStates=10, Root=1) B3LYP/6-31G** SCRF=(Solvent=water) volume pop=NPA density=current Geom=AllCheck Guess=Read



