%nprocshared=7
%mem=14GB
%Chk=LACZRKUWKHQVKS-UHFFFAOYSA-N_conf_0_0.chk
# opt=CalcFc B3LYP/6-31G** SCRF=(Solvent=water) scf=xqc 

LACZRKUWKHQVKS-UHFFFAOYSA-N_conf_0

0 1
N -5.0812165361877355 3.653172382675128 1.811431923104902
C -4.473748511621185 2.597780628969232 1.1263363233484767
C -3.4056486711916976 2.842589827311847 0.2623370046351194
C -2.8700634958683677 1.816207593200003 -0.5180941417713009
C -3.4224904762349295 0.5337393294001539 -0.4591283673215361
O -2.9394028438811475 -0.48480006889036664 -1.2503321890477253
C -1.5881241744120935 -0.7412308354088978 -1.1863676537144052
C -0.9012849705573833 -0.8727451949313507 0.02394791117615652
C 0.46321288154221874 -1.1695564971300556 0.01843139156345085
C 1.1331062787718489 -1.3339192260093187 -1.19736083699073
O 2.4685585642528323 -1.66072590200321 -1.271747689983357
C 3.3355266420305916 -0.9305578565453159 -0.4892073059475842
C 3.365736635192933 0.46514196739606267 -0.5579980750935128
C 4.281516011285876 1.181470203538477 0.21478379419156732
C 5.153760391276775 0.5206787606232774 1.0806897506785695
N 6.145467934149423 1.2328414097952163 1.7601175948393433
C 5.168821600623061 -0.877128277274428 1.0798118382236164
C 4.2558742064877215 -1.619224670520677 0.3075435116175495
C 4.266616827415291 -3.1221850394364763 0.33933433768409244
F 4.486132695280398 -3.6855972010184193 -0.8807507432706164
F 5.234949843709884 -3.634675142588843 1.154546631566723
F 3.096568797316473 -3.647696218932186 0.7995587196483591
C 0.4357604505752214 -1.248302212866696 -2.4032322633246195
C -0.9276363025417423 -0.9514455017572063 -2.397561201649731
C -4.544670535453253 0.2835879291560899 0.3373226220656472
C -5.177721868000297 -1.0797136801392884 0.36063405240500696
F -6.2664433439423455 -1.1515784539840108 1.1818668856312584
F -4.328399858473841 -2.0471355119711454 0.8068316434143794
F -5.618435487124761 -1.490089316879991 -0.8604777539645981
C -5.0671625575228205 1.3322228826616065 1.1171169169996193
H -5.626502008914627 3.3716782929488835 2.62049995427694
H -4.460688027638571 4.430074541597201 2.0167956288297217
H -2.982400829246795 3.8406946589542237 0.18363133711637725
H -2.0376222803977884 2.029800599647706 -1.1835719660272708
H -1.4202013081080533 -0.7668265928227848 0.9726221240611956
H 0.9867373662597373 -1.2893895138418976 0.9626220503269182
H 2.6943453520670237 1.0004485529458758 -1.2244490403846364
H 4.310621806187035 2.2647403428687123 0.12892972429617347
H 5.9033417721273755 2.1987122864234485 1.9594827985876198
H 6.524794040048895 0.7557895518926331 2.5722023673072463
H 5.904642483795789 -1.4016520858764143 1.687886617801851
H 0.9522320413712915 -1.415199110860763 -3.3447130552373543
H -1.4740303741558032 -0.8860768341195714 -3.334734165502461
H -5.954430160292525 1.156079203803158 1.7237848453673148


--Link1--
%nprocshared=7
%mem=14GB
%Oldchk=LACZRKUWKHQVKS-UHFFFAOYSA-N_conf_0_0.chk
%Chk=LACZRKUWKHQVKS-UHFFFAOYSA-N_conf_0_1.chk
# freq B3LYP/6-31G** SCRF=(Solvent=water) volume NMR pop=NPA density=current Geom=AllCheck Guess=Read


--Link1--
%nprocshared=7
%mem=14GB
%Oldchk=LACZRKUWKHQVKS-UHFFFAOYSA-N_conf_0_1.chk
%Chk=LACZRKUWKHQVKS-UHFFFAOYSA-N_conf_0_2.chk
# TD(NStates=10, Root=1) B3LYP/6-31G** SCRF=(Solvent=water) volume pop=NPA density=current Geom=AllCheck Guess=Read



