%nprocshared=6
%mem=12GB
%Chk=JCEZOHLWDIONSP-UHFFFAOYSA-N_conf_3_0.chk
# opt=CalcFc B3LYP/6-31G** SCRF=(Solvent=water) scf=xqc 

JCEZOHLWDIONSP-UHFFFAOYSA-N_conf_3

0 1
N -6.022811447467927 1.7687256553576494 1.544832834333461
C -5.82495755181113 0.3641771664146202 1.201893260172892
C -4.378007530912711 0.08859363869998617 0.8058943507575216
C -4.176404116517829 -1.3828069807044625 0.4510690594193146
O -2.80389780452502 -1.6508559577833857 0.1689466886834666
C -2.4510183833567805 -1.3979806021782852 -1.196082500980401
C -0.9420888539114988 -1.5679769844140383 -1.365721773197546
O -0.2728961005299434 -0.4221513346754958 -0.825359463251075
C 1.145066029717947 -0.5742019718978946 -0.867632824340568
C 1.801996744497409 0.6885686412618922 -0.31435809322200065
O 3.227425802807819 0.6092836357240964 -0.359250061823675
C 3.7825161353370125 -0.04496863979649884 0.7820129396098925
C 5.301279596282739 -0.16459687257456918 0.6449721914222502
C 6.017222286281689 1.1844971012170646 0.5378700943664126
N 5.820258421954091 1.8041283556799805 -0.7672911781664975
H -5.401623752655952 2.0223205415189334 2.313300300564604
H -5.7431899313922035 2.3569445571719374 0.7601403105603242
H -6.107906864505422 -0.25255589583506505 2.0618167741422266
H -6.498779079049318 0.10350443176027682 0.37850059745947656
H -3.6969051648691216 0.35831808710744184 1.623216797024402
H -4.093001474570513 0.7214326300547174 -0.04275803313504225
H -4.812274754088217 -1.6899498165197777 -0.38773738621415466
H -4.448353380388533 -2.0036992814344874 1.3116849726567092
H -2.974450858219336 -2.1250492847593994 -1.826190341425245
H -2.748433299446461 -0.3837051555817557 -1.4806472830034014
H -0.6009952534006235 -2.469380045602499 -0.8441700762019971
H -0.6980177197500469 -1.641738039172136 -2.430942192442019
H 1.4765849006017417 -0.7415032372526019 -1.8993778122431717
H 1.438209864051647 -1.4488519396277202 -0.27708767906951215
H 1.5033746206523653 1.5421649309882632 -0.9335663200745611
H 1.4488643647697992 0.9116525483033935 0.6999573549605825
H 3.356274141036409 -1.048725095234441 0.8812359460970984
H 3.5349778758045867 0.5284343970286851 1.6829052441196326
H 5.543427239569125 -0.7752598032081929 -0.2338865288329409
H 5.686357527254705 -0.6971133603693592 1.5227049097555694
H 5.661318589337173 1.8583545407212914 1.3251241167780732
H 7.091788138845027 1.039080555779819 0.6904390636731575
H 4.824180379036492 1.7353875240596803 -1.0062588563697643
H 6.034890663531057 2.7975013597728142 -0.7136210111672152


--Link1--
%nprocshared=6
%mem=12GB
%Oldchk=JCEZOHLWDIONSP-UHFFFAOYSA-N_conf_3_0.chk
%Chk=JCEZOHLWDIONSP-UHFFFAOYSA-N_conf_3_1.chk
# freq B3LYP/6-31G** SCRF=(Solvent=water) volume NMR pop=NPA density=current Geom=AllCheck Guess=Read


--Link1--
%nprocshared=6
%mem=12GB
%Oldchk=JCEZOHLWDIONSP-UHFFFAOYSA-N_conf_3_1.chk
%Chk=JCEZOHLWDIONSP-UHFFFAOYSA-N_conf_3_2.chk
# TD(NStates=10, Root=1) B3LYP/6-31G** SCRF=(Solvent=water) volume pop=NPA density=current Geom=AllCheck Guess=Read



