%nprocshared=6
%mem=12GB
%Chk=JCEZOHLWDIONSP-UHFFFAOYSA-N_conf_0_0.chk
# opt=CalcFc B3LYP/6-31G** SCRF=(Solvent=water) scf=xqc 

JCEZOHLWDIONSP-UHFFFAOYSA-N_conf_0

0 1
N 6.74590421437097 -1.5020177913616208 -0.7972371434332997
C 6.340186134795747 -0.5867390052321209 0.2638670673765563
C 5.072720480538337 0.19809901062945048 -0.0648082822986177
C 3.818507372783886 -0.6665420541744471 -0.11519369122733729
O 2.700553227666193 0.1860479950555064 -0.3617860292805087
C 1.4742274956951218 -0.5525184940668079 -0.42503482135589626
C 0.30445809385328887 0.42234863085537805 -0.5557018478382765
O 0.018020284242185634 0.9858228751605852 0.7265498177503832
C -0.8078009720758345 2.1529488820860876 0.678839640495626
C -2.2260102913532545 1.8994372570617168 0.15728069335304917
O -2.914649247018711 1.0115165027137472 1.0409771899286175
C -4.228130533021291 0.6750930396167476 0.5959249853639946
C -4.185321467045194 -0.5192122070079545 -0.3544591984013373
C -5.565045992554322 -0.949888083520845 -0.8485706042980502
N -6.401341048956584 -1.5299098234958552 0.19471047855287557
H 6.031207043607424 -2.2093101226953857 -0.9545850401535874
H 6.841082272588621 -0.9898754738644547 -1.6739586478501716
H 6.207618970870504 -1.1499016061189993 1.1940837052166702
H 7.160296148568981 0.11918504733192595 0.43530065732586126
H 5.188793019142142 0.735409861540929 -1.0148810902839533
H 4.931493244282878 0.9787034698966777 0.6939381832267845
H 3.6785756861211425 -1.1851579295205106 0.8401155179246946
H 3.8884912216842165 -1.407415402380986 -0.9188408668473813
H 1.36432391295165 -1.1598217909595179 0.48052502856673907
H 1.5104695152498937 -1.2033927155273274 -1.3052383697051884
H 0.5513826917095963 1.2168852926755571 -1.2686975597647707
H -0.5795086188017068 -0.12455418122502597 -0.8980264679446107
H -0.866346654938645 2.525835025236449 1.7070409278368506
H -0.3091910031620516 2.920191623250836 0.07594880712401621
H -2.768348278724325 2.850949300025095 0.12075696358306666
H -2.1968751097887647 1.475705612906253 -0.8502489226993509
H -4.7159355533892064 1.5424132280011422 0.13575397937561695
H -4.799783991792255 0.41605064843439804 1.492667753827763
H -3.6725883021863974 -1.3580793196403422 0.13348169453714906
H -3.5675488782233193 -0.2709480934835331 -1.2254204388537708
H -6.088341222571214 -0.09946223468709935 -1.2991523207202889
H -5.440216352130744 -1.6988253676443155 -1.6384474879094177
H -6.588377769717061 -0.8488163245979337 0.9285260274284568
H -5.906949743271695 -2.3002552812736 0.6452745219560602


--Link1--
%nprocshared=6
%mem=12GB
%Oldchk=JCEZOHLWDIONSP-UHFFFAOYSA-N_conf_0_0.chk
%Chk=JCEZOHLWDIONSP-UHFFFAOYSA-N_conf_0_1.chk
# freq B3LYP/6-31G** SCRF=(Solvent=water) volume NMR pop=NPA density=current Geom=AllCheck Guess=Read


--Link1--
%nprocshared=6
%mem=12GB
%Oldchk=JCEZOHLWDIONSP-UHFFFAOYSA-N_conf_0_1.chk
%Chk=JCEZOHLWDIONSP-UHFFFAOYSA-N_conf_0_2.chk
# TD(NStates=10, Root=1) B3LYP/6-31G** SCRF=(Solvent=water) volume pop=NPA density=current Geom=AllCheck Guess=Read



