%nprocshared=6
%mem=12GB
%Chk=JCEZOHLWDIONSP-UHFFFAOYSA-N_conf_4_0.chk
# opt=CalcFc B3LYP/6-31G** SCRF=(Solvent=water) scf=xqc 

JCEZOHLWDIONSP-UHFFFAOYSA-N_conf_4

0 1
N 7.526177837736533 -0.5334805920240241 -0.13499896497262476
C 6.439823565429868 -0.019983087889927902 -0.9615453136871402
C 5.163719483501309 0.12464202861773177 -0.13797942830801596
C 4.015867228495106 0.6537210855252954 -0.9952589419726453
O 2.8520811562067507 0.9410010007880704 -0.22172412549041412
C 2.159352027060682 -0.2261586862027782 0.2325293768704206
C 0.7907031183373707 0.1825765695949951 0.779657738943112
O -0.09787335145364312 0.43780047234293074 -0.31476390234228796
C -1.3406200291505446 1.0090793332076098 0.09328333097090587
C -2.30787001099721 -0.03706262851376924 0.6451301548115418
O -3.5477305071649514 0.5936074789350092 0.9656136758297889
C -4.521049517836832 -0.31019296601495655 1.4889357307934934
C -5.2173492552233975 -1.1212632338154023 0.3967492290020823
C -5.822468485906246 -0.2775035401142272 -0.7261023292236174
N -6.893271530707562 0.5928672180610824 -0.2495829188588296
H 8.3618365185999 -0.6520295690080763 -0.706717765740213
H 7.287460774835158 -1.4591442670236652 0.21819565894292434
H 6.273080453027895 -0.7007806779740305 -1.8035711842611795
H 6.734920697926102 0.951625311437451 -1.3720866071984483
H 5.326076411161726 0.8024725611892213 0.7096343923101739
H 4.888606145842722 -0.8442840593931898 0.2953750281467194
H 4.317078056658073 1.596992451586234 -1.4641438025993698
H 3.7662411920650896 -0.042330933601254735 -1.8047356004301025
H 2.0385279962855263 -0.933991208993438 -0.595075451520373
H 2.741973217057479 -0.6882664603366712 1.0352300711957954
H 0.38330009530070913 -0.6370906069709478 1.3792232661170027
H 0.8854386263384669 1.0830735400258502 1.3966856810209238
H -1.7907607282954532 1.4726764887669048 -0.7921215500638354
H -1.1824409754559335 1.8232112574030508 0.8110048733363687
H -1.892642109341315 -0.502520744215138 1.5453289499919032
H -2.455217117252561 -0.8241690824032445 -0.1019716164869503
H -4.061229036795273 -0.9753058210608584 2.229589287539332
H -5.258985406654657 0.29314401132175755 2.028143507120547
H -4.496911530237797 -1.8120151642007947 -0.056475907284369194
H -5.995571925427363 -1.7431673252005886 0.8561538330480039
H -6.23750422480891 -0.9504739387531267 -1.4846054200030365
H -5.050633984176967 0.3237111937811926 -1.2187975365796426
H -7.294444894616462 1.0883940262151464 -1.0457905666460539
H -6.487689980364768 1.3206185649106494 0.3410100550750485


--Link1--
%nprocshared=6
%mem=12GB
%Oldchk=JCEZOHLWDIONSP-UHFFFAOYSA-N_conf_4_0.chk
%Chk=JCEZOHLWDIONSP-UHFFFAOYSA-N_conf_4_1.chk
# freq B3LYP/6-31G** SCRF=(Solvent=water) volume NMR pop=NPA density=current Geom=AllCheck Guess=Read


--Link1--
%nprocshared=6
%mem=12GB
%Oldchk=JCEZOHLWDIONSP-UHFFFAOYSA-N_conf_4_1.chk
%Chk=JCEZOHLWDIONSP-UHFFFAOYSA-N_conf_4_2.chk
# TD(NStates=10, Root=1) B3LYP/6-31G** SCRF=(Solvent=water) volume pop=NPA density=current Geom=AllCheck Guess=Read



