%nprocshared=3
%mem=6GB
%Chk=OCIDXARMXNJACB-UHFFFAOYSA-N_conf_1_0.chk
# opt=CalcFc B3LYP/6-31G** SCRF=(Solvent=water) scf=xqc 

OCIDXARMXNJACB-UHFFFAOYSA-N_conf_1

0 1
N -3.24917825085423 0.3462024068586634 -0.46057156595582777
C -2.5485130081836815 -0.11630213026650159 0.7453248206173955
C -1.5429978345155473 -1.23783958320164 0.4194844159186828
N -0.6161834722586469 -0.8171589536636783 -0.6375013198888628
C 0.6362893405601914 -0.27877658871410593 -0.3451680938465205
C 0.9761264182930695 0.28951946169598014 0.8872642494828442
C 2.228743051414253 0.8794338152914244 1.095460220580314
C 3.156893362254002 0.9357601299331403 0.06079144117353284
C 2.8267261913121757 0.4131176693768372 -1.1843652570035625
C 1.5739737255836113 -0.17509161837687567 -1.384160049784488
H -3.6513447154694236 1.263956662332826 -0.27922383486585883
H -2.522692363291257 0.4949608287543308 -1.1692298012658677
H -2.0246957173950735 0.7359374293650112 1.1908270770007445
H -3.281992694440003 -0.4747024672068108 1.4744458699423946
H -1.019170085198402 -1.5733436558875964 1.321661974759244
H -2.100489605984115 -2.107746277189676 0.049835103455554246
H -0.5857779332965434 -1.4776916280883656 -1.4101444085560317
H 0.27679540187896357 0.28835110313220713 1.7164856392662515
H 2.471800929266453 1.3025063941558817 2.0665547146051013
H 4.127476452959528 1.396859110735554 0.22080301690568976
H 3.5362880453960712 0.46858198513945903 -2.0052967539828868
H 1.331922761968638 -0.5565340941759996 -2.3732774585578498


--Link1--
%nprocshared=3
%mem=6GB
%Oldchk=OCIDXARMXNJACB-UHFFFAOYSA-N_conf_1_0.chk
%Chk=OCIDXARMXNJACB-UHFFFAOYSA-N_conf_1_1.chk
# freq B3LYP/6-31G** SCRF=(Solvent=water) volume NMR pop=NPA density=current Geom=AllCheck Guess=Read


--Link1--
%nprocshared=3
%mem=6GB
%Oldchk=OCIDXARMXNJACB-UHFFFAOYSA-N_conf_1_1.chk
%Chk=OCIDXARMXNJACB-UHFFFAOYSA-N_conf_1_2.chk
# TD(NStates=10, Root=1) B3LYP/6-31G** SCRF=(Solvent=water) volume pop=NPA density=current Geom=AllCheck Guess=Read



