%nprocshared=9
%mem=18GB
%Chk=HHLMWQDRYZAENA-UHFFFAOYSA-N_conf_2_0.chk
# opt=CalcFc B3LYP/6-31G** SCRF=(Solvent=water) scf=xqc 

HHLMWQDRYZAENA-UHFFFAOYSA-N_conf_2

0 1
F 1.91416913573273 0.6265298732222073 -3.7749213557818537
C 0.6686865639834628 0.17917601202354996 -3.489015130706467
C 0.19475025513479152 0.6054160094510396 -2.091547410704152
C 1.252383569518686 0.1141065171889485 -1.0567102129226205
C 1.3722055518521077 -1.2669145014698309 -0.786528883043097
C 2.306908551957196 -1.7488408633693935 0.13323515189959761
C 3.153621523575719 -0.8648159908577114 0.7929102497591509
O 4.02568526967892 -1.4036275781469056 1.7104678632734018
C 5.31136910052996 -0.9146813724332139 1.7265336131194282
C 5.8492863050691986 -0.5779744099626642 2.9666581703535138
C 7.1605634606178565 -0.10253026442887117 3.0498301665233876
C 7.962043868730513 -0.016009128461423116 1.9076739473915996
N 9.228845227482694 0.5747527390625548 1.9796471507846587
C 7.399313467639021 -0.3249345747365609 0.6656450308340169
C 6.088583935773719 -0.8017817120495255 0.5734040777942261
C 3.040241104911577 0.5050863198833638 0.5623739191636392
C 2.104645269439023 0.9894387114378544 -0.3592959972644021
C -1.2161723941711324 0.07644118553583391 -1.6904798763919138
C -1.7161097733111728 0.3426835718800688 -0.3963072675891642
C -2.977757014407178 -0.10570228724959445 0.0038669992182912808
C -3.7755186476432705 -0.8174006900545528 -0.8885850631890534
O -5.013086880540593 -1.3172687794714466 -0.5552201392453759
C -5.873098832317958 -0.47820184199666993 0.11491510343950317
C -6.1579659031978355 0.8146220929437791 -0.3248872128780149
C -7.067557969583544 1.6031165941669692 0.3855340994593231
C -7.7399645881826595 1.0914084674662963 1.4992733636123634
N -8.556661385119353 1.923794467317451 2.272768536294622
C -7.4167504651953475 -0.19208150394539458 1.9492042797334284
C -6.509594935399819 -0.9875949025062736 1.244492121704226
C -3.2955500710590546 -1.1145691664557869 -2.160648222755267
C -2.0318145790034077 -0.6671687560902391 -2.5624279613532837
C 0.0995568743101176 2.1315546299555104 -2.2399515216959385
F 1.2544089772808715 2.6957169667108487 -2.6641625633349033
F -0.20387177882735474 2.7398530400798777 -1.0634614722910576
F -0.8617187138760938 2.510050216934076 -3.1157608747242866
F 0.7151020037094592 -1.1724485497877066 -3.6213877790705435
F -0.13942283808413541 0.6217433715470939 -4.4805438665803505
H 0.7293087099849204 -1.9928985575767006 -1.284560646348474
H 2.374455460491602 -2.8156004735771294 0.3310004132803101
H 5.244790866779367 -0.6657437912191303 3.8648746054952863
H 7.55286569850775 0.19658969971714954 4.018112437217912
H 9.84509211646718 0.3192957257082242 1.2144068203004224
H 9.677602757211888 0.4760576955999768 2.885014637698078
H 7.980849942315891 -0.20280582421347979 -0.24424212915150728
H 5.683582930118892 -1.0717037557585485 -0.3976770345985673
H 3.6728925717035543 1.2089876873067176 1.0981233072151124
H 2.0717780836002384 2.067971391000322 -0.5006719183395683
H -1.1231676472305252 0.9003420401992068 0.32919415550273207
H -3.324008095308333 0.10325240910155685 1.012682096406605
H -5.6755332315362015 1.2190077356876368 -1.210187621665923
H -7.252550274630201 2.6217509746247556 0.05499692090091437
H -8.986565087851108 2.6792265321736086 1.7480001373354774
H -9.22799899469756 1.422045965227108 2.8458833868491595
H -7.874590901822161 -0.5875212442449692 2.851752968264284
H -6.288890836106082 -1.9939703877078734 1.587462154002521
H -3.9091710428449584 -1.692501498204744 -2.84752045057057
H -1.7204962721601615 -0.9230518027948258 -3.5732352726299683


--Link1--
%nprocshared=9
%mem=18GB
%Oldchk=HHLMWQDRYZAENA-UHFFFAOYSA-N_conf_2_0.chk
%Chk=HHLMWQDRYZAENA-UHFFFAOYSA-N_conf_2_1.chk
# freq B3LYP/6-31G** SCRF=(Solvent=water) volume NMR pop=NPA density=current Geom=AllCheck Guess=Read


--Link1--
%nprocshared=9
%mem=18GB
%Oldchk=HHLMWQDRYZAENA-UHFFFAOYSA-N_conf_2_1.chk
%Chk=HHLMWQDRYZAENA-UHFFFAOYSA-N_conf_2_2.chk
# TD(NStates=10, Root=1) B3LYP/6-31G** SCRF=(Solvent=water) volume pop=NPA density=current Geom=AllCheck Guess=Read



