%nprocshared=9
%mem=18GB
%Chk=HHLMWQDRYZAENA-UHFFFAOYSA-N_conf_4_0.chk
# opt=CalcFc B3LYP/6-31G** SCRF=(Solvent=water) scf=xqc 

HHLMWQDRYZAENA-UHFFFAOYSA-N_conf_4

0 1
F -0.9469766426022411 -0.37265759636404233 3.688902963937244
C 0.15130639112459238 -0.24306344040456995 2.908659423164035
C 0.0009075446011407609 0.8427289462521553 1.832740272314969
C -1.1492679913389967 0.5947827464901732 0.809681042714908
C -1.3188329809099137 1.4839849878524891 -0.27525271585425815
C -2.3398563205335607 1.3022566674986713 -1.2108119345318007
C -3.224947466454141 0.2398823427374739 -1.0718036232288009
O -4.195148010026596 0.09090699472845004 -2.0341319247935985
C -5.49111677971957 -0.06684242307061815 -1.5975690235581301
C -6.060389779314213 0.7306534410621202 -0.6041522619727668
C -7.395634902388873 0.5367453423567579 -0.23840253506172232
C -8.162251723533627 -0.46763627324555135 -0.8360590985236309
N -9.526998952858431 -0.5785035848708151 -0.546220726039629
C -7.6035170428663195 -1.2030876496369685 -1.8850777243753727
C -6.269440333886308 -1.0154166594774299 -2.2573815743446897
C -3.066949008025293 -0.6665595918458346 -0.025417190704286684
C -2.042757833065841 -0.4873200051076983 0.9108398347113188
C 1.3606655097190248 0.9572077498585617 1.0780060755841654
C 2.2193748541561913 2.0634143026170486 1.2120996547754588
C 3.4334859341654758 2.12083573808367 0.5188961974451417
C 3.8208495427929514 1.0715176138380262 -0.30910245832633054
O 5.0118874762477565 1.213960355059252 -0.9829783793097717
C 5.848697141067971 0.12311616609541201 -1.023653167778622
C 6.394795656322226 -0.21436557965947714 -2.2597444044273574
C 7.2758541192075405 -1.294713791818983 -2.35950663066798
C 7.66369035506247 -2.0071074635124964 -1.2208488811447844
N 8.4493283219034 -3.158889808989805 -1.343578390544388
C 7.081193999611192 -1.6804205140936177 0.007405864373180647
C 6.19911641222965 -0.6008541563399772 0.11627274953211808
C 2.9786632562809423 -0.02409198748543192 -0.47927500982415583
C 1.7661366686744686 -0.08365842991267716 0.21332407665583564
C -0.37511165082658726 2.0733677318018495 2.6716217951943655
F 0.5190489841729108 2.339162908214877 3.6525842629571725
F -1.5826680235242496 1.9450080853414125 3.2716039759136435
F -0.44858537356508815 3.2008281446774287 1.9164703223842028
F 0.37198183220985104 -1.4693980401206002 2.3669014831808464
F 1.1929800097766987 -0.008294902529640866 3.7416166248484837
H -0.6492210733495232 2.3328579992920466 -0.413131635474073
H -2.4470179255656213 1.994479277679115 -2.0420553238940604
H -5.484806672878177 1.516846198125381 -0.1242429887889565
H -7.833924550567543 1.18295037700108 0.5175977727185004
H -9.775844557317226 -0.2630565905472262 0.38598229956417807
H -9.920645083759798 -1.4884600330872644 -0.7631288813503108
H -8.204949959751888 -1.9295744654063747 -2.4251756573521916
H -5.844156772530853 -1.6022332043607643 -3.066378865033059
H -3.7356290974990247 -1.5187467010662965 0.0672035878867576
H -1.9760681094609893 -1.2229987949799566 1.7099049966964213
H 1.9791992111371994 2.9116724940420586 1.8503249972051745
H 4.081475758924517 2.986798343842338 0.6320258558243563
H 6.121882106040462 0.34830611230597935 -3.1478627637384595
H 7.6614160863663745 -1.5724455512054116 -3.3365460788903207
H 9.069233237728339 -3.149707717384637 -2.1474429667117496
H 8.930534106910496 -3.4204886063154922 -0.48870586561623
H 7.315330593514232 -2.2612024575338605 0.8956991956296719
H 5.788193370905942 -0.3408201546826805 1.0872862725387666
H 3.2505673121286556 -0.8333275847452345 -1.1520118602276375
H 1.1349188251388493 -0.9583273070524976 0.055972010492928756


--Link1--
%nprocshared=9
%mem=18GB
%Oldchk=HHLMWQDRYZAENA-UHFFFAOYSA-N_conf_4_0.chk
%Chk=HHLMWQDRYZAENA-UHFFFAOYSA-N_conf_4_1.chk
# freq B3LYP/6-31G** SCRF=(Solvent=water) volume NMR pop=NPA density=current Geom=AllCheck Guess=Read


--Link1--
%nprocshared=9
%mem=18GB
%Oldchk=HHLMWQDRYZAENA-UHFFFAOYSA-N_conf_4_1.chk
%Chk=HHLMWQDRYZAENA-UHFFFAOYSA-N_conf_4_2.chk
# TD(NStates=10, Root=1) B3LYP/6-31G** SCRF=(Solvent=water) volume pop=NPA density=current Geom=AllCheck Guess=Read



