%nprocshared=7
%mem=14GB
%Chk=QJENIOQDYXRGLF-UHFFFAOYSA-N_conf_1_0.chk
# opt=CalcFc B3LYP/6-31G** SCRF=(Solvent=water) scf=xqc 

QJENIOQDYXRGLF-UHFFFAOYSA-N_conf_1

0 1
N -4.6907909971789925 -0.8640130127488225 -1.1897562128828554
C -3.5932982701566223 -0.28436892643653133 -0.524602790413777
C -2.9163589683500004 -1.0101826016671298 0.4793269150238173
C -3.400748218125535 -2.358448650022906 0.9426366636452828
C -1.7693321390110506 -0.4678679257711587 1.0837931568253851
C -1.24549932808899 0.7616500395320331 0.6730505500514933
C -0.01171171311626021 1.3355693424224266 1.3320953275358527
C 1.2474370487199744 0.5311523354958362 1.1021604517041417
C 1.8799800048330906 -0.1241219601943854 2.1623798294233976
C 3.053670862278383 -0.8714043387026936 1.960445597554956
C 3.6634346110370317 -1.5828481590241787 3.1393457693909093
C 3.641893814977673 -0.9275945617194001 0.677942250789415
C 2.968246391419648 -0.33079277087052333 -0.40936367940129803
C 3.467272088433277 -0.43306333789900575 -1.834360347473499
C 4.490255915187848 0.6458808965579157 -2.158228895761167
C 1.796671627256297 0.41452816558035027 -0.1783111253383482
N 4.765841717409995 -1.7464002264844949 0.45705494912612926
C -1.8791208095332697 1.4425243837312725 -0.3702856093788118
C -3.029518924665837 0.9220328948775316 -0.99354335041811
C -3.631050484517234 1.7130573319900326 -2.1354076136787
C -4.716837942494076 2.665254684599404 -1.6564098669958445
H -5.306983467294962 -0.18969991187612162 -1.6281173895599534
H -5.208724112115983 -1.5255505048469071 -0.6224329377366578
H -2.7096802266185587 -2.810891314791906 1.6620384120033105
H -4.374468986825647 -2.260907424034294 1.4338767272585702
H -3.4831934455546305 -3.0483249622578756 0.09624734457250875
H -1.2646908814554063 -1.022009426352754 1.8735752902671865
H 0.1687212048379456 2.360067669370617 0.9803943931563306
H -0.21250671770108545 1.4336432329927442 2.4074002928706
H 1.448704176679447 -0.06445705468975359 3.1598378668083402
H 3.0371141148603753 -1.4948807897248009 4.0334130439303735
H 3.7739287612714825 -2.6508746519847555 2.9259226716489524
H 4.641729332734338 -1.1525473023458213 3.375400919856202
H 3.8890212870885787 -1.4271019119437034 -2.022222526514395
H 2.6211550539662087 -0.34622843029214073 -2.5283055888878168
H 4.8236525500157565 0.5499369416374186 -3.1961977341816468
H 5.37071976677558 0.5743131235980402 -1.5112574860045038
H 4.063103391866645 1.6464883958508163 -2.0312678129296806
H 1.295231379497829 0.8957356199976773 -1.0168623738423994
H 5.310702033797068 -1.4833337249224123 -0.3560494380123824
H 5.35268264819242 -1.8687522614468552 1.2747702284498783
H -1.4678680618145938 2.3888541433343087 -0.7180403570705627
H -4.027195204245797 1.0384212283735115 -2.9028573503390915
H -2.8436761349214073 2.2879144451390996 -2.639622522791863
H -5.12805598618378 3.2255111940072507 -2.5020151389177805
H -5.539944009967422 2.1279825812082938 -1.1739944650440084
H -4.319914753201199 3.386147492754198 -0.9335960383170075


--Link1--
%nprocshared=7
%mem=14GB
%Oldchk=QJENIOQDYXRGLF-UHFFFAOYSA-N_conf_1_0.chk
%Chk=QJENIOQDYXRGLF-UHFFFAOYSA-N_conf_1_1.chk
# freq B3LYP/6-31G** SCRF=(Solvent=water) volume NMR pop=NPA density=current Geom=AllCheck Guess=Read


--Link1--
%nprocshared=7
%mem=14GB
%Oldchk=QJENIOQDYXRGLF-UHFFFAOYSA-N_conf_1_1.chk
%Chk=QJENIOQDYXRGLF-UHFFFAOYSA-N_conf_1_2.chk
# TD(NStates=10, Root=1) B3LYP/6-31G** SCRF=(Solvent=water) volume pop=NPA density=current Geom=AllCheck Guess=Read



