%nprocshared=7
%mem=14GB
%Chk=QJENIOQDYXRGLF-UHFFFAOYSA-N_conf_2_0.chk
# opt=CalcFc B3LYP/6-31G** SCRF=(Solvent=water) scf=xqc 

QJENIOQDYXRGLF-UHFFFAOYSA-N_conf_2

0 1
N 4.825314049349041 -1.60917686010748 -0.24074506603277393
C 3.7035667247071107 -0.8447086774380158 -0.6251925726644175
C 3.2433331727947485 -0.9054689728358343 -1.9595475277513947
C 3.9843899541759544 -1.680992488123711 -3.0163569373936343
C 2.0761295134145406 -0.21812997748674312 -2.32854025392307
C 1.3278427207796515 0.4896280749891597 -1.3854167115076879
C 0.07895300070447273 1.237267927711266 -1.79911304083957
C -1.1835107354391219 0.7838420193546467 -1.1006723986067295
C -1.6702559574545721 -0.5146648611507534 -1.274879280169109
C -2.8369992219231097 -0.9490357220161975 -0.6227266631022069
C -3.2728587100574904 -2.377962913126291 -0.8124483469227833
C -3.5723408104025047 -0.05049694479889664 0.18154940550036397
C -3.0583400006405563 1.245993053490423 0.40369707244214337
C -3.7073376346115183 2.2327974457448683 1.3508143645548292
C -3.3055975001363733 1.986711453416476 2.797781710272323
C -1.8800040729084793 1.6502955884928963 -0.2532291770339547
N -4.6777945179600415 -0.5176310882815283 0.918319710300524
C 1.7565272436607395 0.49336089293231056 -0.05171811040177277
C 2.9165081056496294 -0.19103719907043787 0.35491663573231275
C 3.3377815030321942 -0.2223418664237433 1.814289145031692
C 2.3875395942846986 0.38845827017700696 2.839163929707583
H 5.281413800611233 -1.2709499581777703 0.5988108930246889
H 5.492824117695946 -1.7573781396363373 -0.9890276609398756
H 4.100770841611097 -2.7264448037454705 -2.7126808617909766
H 4.969631626114009 -1.23666617278206 -3.1902697441427774
H 3.4468617816737837 -1.679253190746642 -3.970707206683126
H 1.7417380228976882 -0.2471124908250743 -3.363724223889662
H -0.0834219893198455 1.143620073890274 -2.880976317900216
H 0.25195893490359933 2.3069228070169174 -1.6220902287528747
H -1.1179659067096408 -1.2074176175073728 -1.907850783192263
H -4.238307139736769 -2.4135772734922787 -1.3272349467428797
H -3.3528845938214205 -2.8845646596520313 0.15480249266181878
H -2.5550843246237442 -2.943253534102656 -1.4165417647102296
H -3.4223766409611067 3.255158608051249 1.071121322984841
H -4.797367986466755 2.2046314990821125 1.244920063361831
H -2.2200575709209436 2.060674146192224 2.924598942486076
H -3.6154394144954836 0.9940591552074005 3.1397646383377538
H -3.7742297603762163 2.7296505308954457 3.450956748767235
H -1.4933503129808816 2.653848387842787 -0.08401722091696123
H -5.328253500271004 0.2073703266481971 1.1952008744732383
H -5.156700726791157 -1.2988838094354545 0.48488211536012593
H 1.1505296235239302 1.0278070842991944 0.6759142275214921
H 4.300840661151185 0.29594551477988423 1.9012400892109123
H 3.4930950961157268 -1.2693333632158246 2.1036579909845123
H 2.7960300797097184 0.2645893087269022 3.847609630179377
H 1.4065055666882291 -0.0973980490134467 2.8135407705693045
H 2.2503932937597786 1.4612484642504355 2.6681542725457406


--Link1--
%nprocshared=7
%mem=14GB
%Oldchk=QJENIOQDYXRGLF-UHFFFAOYSA-N_conf_2_0.chk
%Chk=QJENIOQDYXRGLF-UHFFFAOYSA-N_conf_2_1.chk
# freq B3LYP/6-31G** SCRF=(Solvent=water) volume NMR pop=NPA density=current Geom=AllCheck Guess=Read


--Link1--
%nprocshared=7
%mem=14GB
%Oldchk=QJENIOQDYXRGLF-UHFFFAOYSA-N_conf_2_1.chk
%Chk=QJENIOQDYXRGLF-UHFFFAOYSA-N_conf_2_2.chk
# TD(NStates=10, Root=1) B3LYP/6-31G** SCRF=(Solvent=water) volume pop=NPA density=current Geom=AllCheck Guess=Read



