%nprocshared=7
%mem=14GB
%Chk=QJENIOQDYXRGLF-UHFFFAOYSA-N_conf_4_0.chk
# opt=CalcFc B3LYP/6-31G** SCRF=(Solvent=water) scf=xqc 

QJENIOQDYXRGLF-UHFFFAOYSA-N_conf_4

0 1
N 4.65797397208051 0.6090418004653535 -1.234874713224424
C 3.494744499687999 0.4316244489701587 -0.4604835735634314
C 3.3492813582121115 1.13443311713123 0.7559064256057617
C 4.353368816290167 2.16775791184044 1.1947995261083038
C 2.2400455767799112 0.8856903483212591 1.5833460478786483
C 1.29178562407233 -0.0855593864007601 1.2516972180892154
C 0.11826044329229825 -0.35743551718858296 2.1670116917212825
C -1.2357858280798624 -0.2753297137613407 1.4976059105070156
C -2.065354923331266 -1.3972745769083708 1.4266353656685506
C -3.323443440046524 -1.3339553432797984 0.8025896189010945
C -4.1462871031125434 -2.59264629098009 0.7194274698038674
C -3.792202397036114 -0.10810939908414463 0.2798719429665394
C -2.9373270623849663 1.015441192909538 0.3004332734097144
C -3.298501767505704 2.3331032536104446 -0.35159396898874545
C -3.0191284964190386 2.3270726602356486 -1.847575114417997
C -1.6794920385497094 0.9211591051986082 0.9258632910615718
N -5.001732076574241 -0.07423295234109818 -0.44045973225185125
C 1.4837443102114498 -0.8326452088178355 0.08509588927208102
C 2.5770550124793994 -0.5955196984615457 -0.7699609520188498
C 2.7207752639932656 -1.4846574981154042 -1.9866851778257653
C 3.69927540465013 -2.6261087535210175 -1.751232371902549
H 4.548023183720778 0.346832569777373 -2.207330541394577
H 5.068914997431971 1.5317017670217878 -1.1470339824803049
H 5.354617419606705 1.7286510473146337 1.2491682919540599
H 4.358636702134965 3.010492000108263 0.49621492752249763
H 4.118210898689395 2.5635041573467494 2.1888255939949963
H 2.1248183960553866 1.4504791303086042 2.5065559439219705
H 0.11591379471107632 0.3514233797001686 3.0053023874948166
H 0.26483473752496756 -1.3474439454073308 2.6179576378355973
H -1.7227516533342875 -2.341196433030327 1.8464018527897685
H -5.067428814345197 -2.4813518419420113 1.3005631424767232
H -4.394132819398073 -2.8193567815005784 -0.3227017714022737
H -3.605240830796733 -3.4568734425561103 1.1197901754632396
H -4.348144902734809 2.58041603605175 -0.15780112651740635
H -2.7255883213920256 3.1452525474894992 0.11418476087305887
H -3.2702881990937454 3.2999001840007782 -2.2824506132474127
H -1.9613405149026502 2.127790748836111 -2.051256211554699
H -3.6087070760079794 1.5639136177825939 -2.365558340134971
H -1.0244261923696656 1.7911314824482396 0.9457281959563137
H -5.42082348813854 0.8455075608571896 -0.5040590641547271
H -5.67648877319535 -0.7680726739478195 -0.13945445804456155
H 0.7714654402053474 -1.6179678462044484 -0.16457078972888306
H 3.0230208627860735 -0.893253859921433 -2.858075225559459
H 1.7427800062778787 -1.9045030062797843 -2.2552972124284767
H 4.706098432908243 -2.25665655766456 -1.5318176068470974
H 3.7595009285077254 -3.2607657103338235 -2.640841218997419
H 3.381470636440121 -3.2514036300784612 -0.9098628145904497


--Link1--
%nprocshared=7
%mem=14GB
%Oldchk=QJENIOQDYXRGLF-UHFFFAOYSA-N_conf_4_0.chk
%Chk=QJENIOQDYXRGLF-UHFFFAOYSA-N_conf_4_1.chk
# freq B3LYP/6-31G** SCRF=(Solvent=water) volume NMR pop=NPA density=current Geom=AllCheck Guess=Read


--Link1--
%nprocshared=7
%mem=14GB
%Oldchk=QJENIOQDYXRGLF-UHFFFAOYSA-N_conf_4_1.chk
%Chk=QJENIOQDYXRGLF-UHFFFAOYSA-N_conf_4_2.chk
# TD(NStates=10, Root=1) B3LYP/6-31G** SCRF=(Solvent=water) volume pop=NPA density=current Geom=AllCheck Guess=Read



