%nprocshared=7
%mem=14GB
%Chk=QJENIOQDYXRGLF-UHFFFAOYSA-N_conf_3_0.chk
# opt=CalcFc B3LYP/6-31G** SCRF=(Solvent=water) scf=xqc 

QJENIOQDYXRGLF-UHFFFAOYSA-N_conf_3

0 1
N -5.161934694643263 -0.06264682798647828 0.20088126706333082
C -3.8976576001653562 -0.09845222353752214 -0.41847013665932165
C -3.4559807129473215 -1.288344861706465 -1.0388248437680851
C -4.353669288995327 -2.490844699734523 -1.1669797455956366
C -2.153977109968685 -1.3665355807014947 -1.563317021493088
C -1.2584232125856385 -0.30142138343190716 -1.4381957941413837
C 0.1414959438114677 -0.39880979302245195 -2.0018802655813146
C 1.237533609858657 -0.35166577580859465 -0.9609684070050419
C 1.329789129812339 -1.3361408136559882 0.02702351452550821
C 2.3534011715855785 -1.3097279155766108 0.9896312782307766
C 2.4116708331746524 -2.4222529946691935 2.0028493409349286
C 3.2847271988530986 -0.2481275210593305 1.0000653017060952
C 3.2352245852660375 0.7152559983095382 -0.03133106829908705
C 4.2659651474477505 1.8149386594435535 -0.174200895379324
C 5.5258150529892704 1.3329962510072237 -0.878512785145891
C 2.2041862525854192 0.6577337216992948 -0.9892395639834382
N 4.369718470312458 -0.28065422967799647 1.897748555078673
C -1.6804058045284869 0.851305136056578 -0.7685285627223736
C -2.9810660303301773 0.9607579617251669 -0.2406080930727854
C -3.32228088973317 2.220896304224501 0.5256081773188742
C -3.173953954417085 2.035383120360644 2.028653271597966
H -5.846012926441131 -0.673497206116397 -0.23076668981442736
H -5.53167723438508 0.8708916615985703 0.33320489389712016
H -3.8295395211373378 -3.340884130174862 -1.6168629913055304
H -5.211450281366571 -2.2559235775918793 -1.8052505931263076
H -4.705662262953947 -2.8118587755257325 -0.1812278882527
H -1.8308814876204922 -2.279322571478753 -2.060342322102578
H 0.2681501438598332 0.4141838508032675 -2.7289239172527546
H 0.26006891563940066 -1.3255771739974773 -2.578466857470275
H 0.5967394922893378 -2.140999325506852 0.04431623183174117
H 1.6572509519805534 -3.190914107016958 1.8036250058306986
H 3.3896318517598556 -2.913666506783206 1.9754236304245558
H 2.226060356797627 -2.0285724327317998 3.00729945260267
H 4.511975792497195 2.237396422054871 0.8062774026920749
H 3.8382231150877013 2.6505916858836023 -0.7428776183236376
H 6.019182116125293 0.5308636369500597 -0.3204530912397737
H 6.238017556344327 2.1576070837634167 -0.9836550770152396
H 5.2975212417648505 0.9527276305540355 -1.8800435072906423
H 2.165451411968056 1.4097816878658214 -1.775430967517185
H 4.786134805051445 0.6253306266930043 2.0750564203314337
H 4.165505782824576 -0.7675402564010075 2.7633325778444715
H -0.977312304798471 1.6722642538586014 -0.6349158288680417
H -2.6665190090146593 3.0392385837948104 0.201587359031984
H -4.335495778017012 2.556230001928046 0.2782529207612632
H -3.848054625503228 1.2610659055557756 2.408551469541977
H -3.406945363089086 2.9698955239982596 2.5488757370351958
H -2.1505408370462975 1.7470449757643776 2.2920107241444025


--Link1--
%nprocshared=7
%mem=14GB
%Oldchk=QJENIOQDYXRGLF-UHFFFAOYSA-N_conf_3_0.chk
%Chk=QJENIOQDYXRGLF-UHFFFAOYSA-N_conf_3_1.chk
# freq B3LYP/6-31G** SCRF=(Solvent=water) volume NMR pop=NPA density=current Geom=AllCheck Guess=Read


--Link1--
%nprocshared=7
%mem=14GB
%Oldchk=QJENIOQDYXRGLF-UHFFFAOYSA-N_conf_3_1.chk
%Chk=QJENIOQDYXRGLF-UHFFFAOYSA-N_conf_3_2.chk
# TD(NStates=10, Root=1) B3LYP/6-31G** SCRF=(Solvent=water) volume pop=NPA density=current Geom=AllCheck Guess=Read



