%nprocshared=2
%mem=4GB
%Chk=XFNJVJPLKCPIBV-UHFFFAOYSA-N_conf_1_0.chk
# opt=CalcFc B3LYP/6-31G** SCRF=(Solvent=water) scf=xqc 

XFNJVJPLKCPIBV-UHFFFAOYSA-N_conf_1

0 1
N -1.9468986190304156 -0.6974723334905831 -0.30743659573353005
C -1.324215626592869 0.6096899550762801 -0.12537245305603
C 0.14312114092455633 0.6124448497724445 -0.5556550117765273
C 1.0142559706904413 -0.2905863197311753 0.31702205294280134
N 2.4155736484759527 -0.18768974499662705 -0.08945737709585143
H -1.9347945548696577 -0.9452555360494851 -1.2966165666414582
H -2.93063736445987 -0.6396242468744595 -0.04467717948789075
H -1.8747923194584828 1.3500934347857443 -0.7162027949959816
H -1.4067083298491314 0.9047180031234635 0.9263322955046228
H 0.5153275757135082 1.6435026631288205 -0.4973634110512933
H 0.2216633653226426 0.30940771776707804 -1.6079063225965806
H 0.9287929154317531 0.005876261035667446 1.3679327345471683
H 0.695860511953691 -1.3352553438515273 0.23666793307264875
H 2.5115109266578917 -0.5176425254133304 -1.0491122297913278
H 2.9719407590900286 -0.8222068342821864 0.48253003319722193


--Link1--
%nprocshared=2
%mem=4GB
%Oldchk=XFNJVJPLKCPIBV-UHFFFAOYSA-N_conf_1_0.chk
%Chk=XFNJVJPLKCPIBV-UHFFFAOYSA-N_conf_1_1.chk
# freq B3LYP/6-31G** SCRF=(Solvent=water) volume NMR pop=NPA density=current Geom=AllCheck Guess=Read


--Link1--
%nprocshared=2
%mem=4GB
%Oldchk=XFNJVJPLKCPIBV-UHFFFAOYSA-N_conf_1_1.chk
%Chk=XFNJVJPLKCPIBV-UHFFFAOYSA-N_conf_1_2.chk
# TD(NStates=10, Root=1) B3LYP/6-31G** SCRF=(Solvent=water) volume pop=NPA density=current Geom=AllCheck Guess=Read



