%nprocshared=3
%mem=6GB
%Chk=DDHUNHGZUHZNKB-UHFFFAOYSA-N_conf_0_0.chk
# opt=CalcFc B3LYP/6-31G** SCRF=(Solvent=water) scf=xqc 

DDHUNHGZUHZNKB-UHFFFAOYSA-N_conf_0

0 1
N -1.8494859399686725 -1.4822521273427085 -0.3168373339174491
C -1.2435930618569695 -0.6201396604992587 0.6965544808685892
C -0.01783876804829045 0.19385020408474365 0.19386709092808546
C 0.47835640628595183 1.0600426595395716 1.37210297515521
C -0.432713512211162 1.1315212172536568 -0.9578470999063441
C 1.1014099303160665 -0.782868492729249 -0.25935782186696
N 2.3406052877135495 -0.11969173263434311 -0.6738719533934706
H -2.261422738231459 -0.9088460624187323 -1.0523209873809627
H -2.6265327502177898 -1.9934945277823852 0.10199257002432256
H -2.0156296648829843 0.06144715388229941 1.0745224710306776
H -0.9415058381565097 -1.251058551074738 1.5414209963671186
H 0.8109896817160858 0.43502747597649105 2.208521993643673
H -0.31923091777464674 1.7144997844547623 1.7423266035236613
H 1.3162602613217178 1.702563867356746 1.0805767651998615
H 0.3696816187270633 1.830431683980666 -1.2184052384184352
H -1.306372513554509 1.7318496234334833 -0.6793675239528536
H -0.6857041794964046 0.5706752658754599 -1.863895556675425
H 0.7535877163081389 -1.401711927362936 -1.094645499452393
H 1.345113829051685 -1.4662719689133796 0.5629996474926117
H 3.0190544081730204 -0.831907917173539 -0.9423472498063551
H 2.1649707447862063 0.42633403209345305 -1.5159893294632858


--Link1--
%nprocshared=3
%mem=6GB
%Oldchk=DDHUNHGZUHZNKB-UHFFFAOYSA-N_conf_0_0.chk
%Chk=DDHUNHGZUHZNKB-UHFFFAOYSA-N_conf_0_1.chk
# freq B3LYP/6-31G** SCRF=(Solvent=water) volume NMR pop=NPA density=current Geom=AllCheck Guess=Read


--Link1--
%nprocshared=3
%mem=6GB
%Oldchk=DDHUNHGZUHZNKB-UHFFFAOYSA-N_conf_0_1.chk
%Chk=DDHUNHGZUHZNKB-UHFFFAOYSA-N_conf_0_2.chk
# TD(NStates=10, Root=1) B3LYP/6-31G** SCRF=(Solvent=water) volume pop=NPA density=current Geom=AllCheck Guess=Read



