%nprocshared=3
%mem=6GB
%Chk=DDHUNHGZUHZNKB-UHFFFAOYSA-N_conf_1_0.chk
# opt=CalcFc B3LYP/6-31G** SCRF=(Solvent=water) scf=xqc 

DDHUNHGZUHZNKB-UHFFFAOYSA-N_conf_1

0 1
N 2.42355723198492 -0.00013990879476010568 -0.27062155515487335
C 1.2288713811462268 0.38229762728429806 0.48680689566181695
C -0.08495534172067136 -0.258505766218517 -0.037921410211832964
C 0.026980377414963348 -1.7984361468540477 -0.009217671347205175
C -0.37354371107349277 0.18095174535449915 -1.4875377831978291
C -1.2643360712372833 0.14132581175948694 0.8931767355733897
N -1.5177332462795492 1.5796561438802577 0.958760006840691
H 3.235271842060228 0.4540711716195085 0.14703379957137103
H 2.3554561097252646 0.3710563672294269 -1.2170512434947043
H 1.386024206637234 0.08987248959976124 1.5320317239945647
H 1.1539931389229319 1.4758131080979953 0.4703391593489306
H 0.2591354769348281 -2.1583405432269114 0.9994737965619002
H -0.9134668249898431 -2.267010257663602 -0.32150366360655885
H 0.8102859275383504 -2.1624016210510906 -0.6829123902640951
H -0.34975892773934814 1.2709710063668895 -1.591308432599577
H 0.36105746882637324 -0.23103595340894184 -2.188131329069662
H -1.3607830387927926 -0.16611005118571087 -1.8133157759912815
H -1.0626967355640387 -0.21391809287046726 1.9111444757824143
H -2.1854467637827626 -0.35557329407870114 0.5643807816672539
H -1.8407647973255283 1.912178045484485 0.05073934464891555
H -2.287147702686022 1.7532781186761695 1.6056345352864183


--Link1--
%nprocshared=3
%mem=6GB
%Oldchk=DDHUNHGZUHZNKB-UHFFFAOYSA-N_conf_1_0.chk
%Chk=DDHUNHGZUHZNKB-UHFFFAOYSA-N_conf_1_1.chk
# freq B3LYP/6-31G** SCRF=(Solvent=water) volume NMR pop=NPA density=current Geom=AllCheck Guess=Read


--Link1--
%nprocshared=3
%mem=6GB
%Oldchk=DDHUNHGZUHZNKB-UHFFFAOYSA-N_conf_1_1.chk
%Chk=DDHUNHGZUHZNKB-UHFFFAOYSA-N_conf_1_2.chk
# TD(NStates=10, Root=1) B3LYP/6-31G** SCRF=(Solvent=water) volume pop=NPA density=current Geom=AllCheck Guess=Read



