%nprocshared=6
%mem=12GB
%Chk=YQLZOAVZWJBZSY-UHFFFAOYSA-N_conf_3_0.chk
# opt=CalcFc B3LYP/6-31G** SCRF=(Solvent=water) scf=xqc 

YQLZOAVZWJBZSY-UHFFFAOYSA-N_conf_3

0 1
N 6.455742378689127 0.1557209726435845 -0.2456895987403155
C 5.152181515395318 -0.4825932985986428 -0.10018293988582788
C 4.031321568900197 0.5562704310257081 -0.07411732790928373
C 2.6617975337025226 -0.11114432402738143 0.0789143442376876
C 1.5387048043434743 0.9282394700823872 0.10116810452193602
C 0.15508218666359347 0.32817950156884185 0.3730600215198493
C -0.350980267776272 -0.5682624096742512 -0.7602351972619403
C -1.7339087214269553 -1.1700108378089418 -0.488086380273787
C -2.8591407225122465 -0.13165448991177278 -0.46643468433455226
C -4.227332284265757 -0.804411077094938 -0.31172118197105386
C -5.400651787291838 0.1762412022057133 -0.38212494362047694
N -5.420675855812303 1.125685924067879 0.7243137304630515
H 6.600994567777623 0.8139168837524703 0.5191693735323297
H 6.46976803723936 0.7128977089656281 -1.099326288375549
H 5.003979154524889 -1.1800814337731353 -0.9316608330213574
H 5.14612806356219 -1.0705299509321002 0.8239941689955347
H 4.192356580495125 1.2549819598992087 0.7565168865476878
H 4.048621782911913 1.1453188894046895 -0.9997793939861604
H 2.640542375450327 -0.6956814442274705 1.0065410360657403
H 2.5114169364431853 -0.8106404407681758 -0.7506768753349295
H 1.7502832643814956 1.6639550418437352 0.887226602916116
H 1.521806616328291 1.477315006064497 -0.8481508120459487
H -0.5418137952825293 1.1606901286899902 0.5205572948564239
H 0.17746606236324822 -0.23723666617106148 1.3124181674484596
H -0.37438374743088376 -0.0024815189581017956 -1.6993510416340698
H 0.3467592497005569 -1.3999547121647893 -0.9084449548773118
H -1.9437440152934882 -1.906371853477213 -1.273995325966432
H -1.7166930149396478 -1.7185502847229286 0.46154426958463196
H -2.840015876502277 0.44995666698831904 -1.3957901955955943
H -2.699036691922246 0.5667985105008161 0.3609005473567347
H -4.2618491053758385 -1.3564614626889289 0.6360057684244649
H -4.355238004570882 -1.5456524072537465 -1.1105375413074672
H -6.338563148506266 -0.3896101781755004 -0.36679351422780376
H -5.3764954960516205 0.7271186645655803 -1.3286836475136974
H -4.591470288359052 1.7163191474137571 0.6906703982622318
H -5.372959855552464 0.6217226807463565 1.6089942689722472


--Link1--
%nprocshared=6
%mem=12GB
%Oldchk=YQLZOAVZWJBZSY-UHFFFAOYSA-N_conf_3_0.chk
%Chk=YQLZOAVZWJBZSY-UHFFFAOYSA-N_conf_3_1.chk
# freq B3LYP/6-31G** SCRF=(Solvent=water) volume NMR pop=NPA density=current Geom=AllCheck Guess=Read


--Link1--
%nprocshared=6
%mem=12GB
%Oldchk=YQLZOAVZWJBZSY-UHFFFAOYSA-N_conf_3_1.chk
%Chk=YQLZOAVZWJBZSY-UHFFFAOYSA-N_conf_3_2.chk
# TD(NStates=10, Root=1) B3LYP/6-31G** SCRF=(Solvent=water) volume pop=NPA density=current Geom=AllCheck Guess=Read



