%nprocshared=3
%mem=6GB
%Chk=WIOZZYWDYUOMAY-UHFFFAOYSA-N_conf_1_0.chk
# opt=CalcFc B3LYP/6-31G** SCRF=(Solvent=water) scf=xqc 

WIOZZYWDYUOMAY-UHFFFAOYSA-N_conf_1

0 1
O 1.4968368958874099 -2.17090150124024 -2.591556532252736
C 1.6986758429464075 -1.0910073773936961 -2.064486964647535
C 0.8513937196453889 -0.47462649235523063 -1.0098350604863766
C -0.04330538298041093 -1.339781744824905 -0.3537448759178523
C -0.9236011234460153 -0.878636479917664 0.6343527128955475
N -1.6723758905332662 -1.8329271558688869 1.3466517347927074
C -0.8513937175916478 0.4746270793474951 1.0098344542764421
C -1.6986758595588707 1.0910069847605068 2.064487030428728
O -2.7917202539613704 0.36924804444962284 2.3836740780855914
O -1.4968390755907548 2.170900998342393 2.5915582727968642
C 0.04330326263184845 1.3397826561521295 0.3537431562378847
C 0.923601187191503 0.8786369837339146 -0.6343528072355491
N 1.672376554466184 1.832927933517027 -1.3466506696292833
O 2.7917210370712997 -0.36925050064976017 -2.3836729256471165
H -0.04915524431789429 -2.396272490341698 -0.6195998024425201
H -2.461227926226173 -1.4029430035054347 1.8391572981671773
H -1.9565763575620916 -2.639596557288112 0.7992808065039586
H -3.2339551989825783 0.926683837662441 3.0599410608885678
H 0.0491525000717962 2.3962733517605654 0.6195975933514893
H 1.9565795265129873 2.6395960043542366 -0.7992788393212366
H 2.4612249951617957 1.4029456522808097 -1.8391620167787763
H 3.2339605091637478 -0.9266862229743096 -3.059937704065665


--Link1--
%nprocshared=3
%mem=6GB
%Oldchk=WIOZZYWDYUOMAY-UHFFFAOYSA-N_conf_1_0.chk
%Chk=WIOZZYWDYUOMAY-UHFFFAOYSA-N_conf_1_1.chk
# freq B3LYP/6-31G** SCRF=(Solvent=water) volume NMR pop=NPA density=current Geom=AllCheck Guess=Read


--Link1--
%nprocshared=3
%mem=6GB
%Oldchk=WIOZZYWDYUOMAY-UHFFFAOYSA-N_conf_1_1.chk
%Chk=WIOZZYWDYUOMAY-UHFFFAOYSA-N_conf_1_2.chk
# TD(NStates=10, Root=1) B3LYP/6-31G** SCRF=(Solvent=water) volume pop=NPA density=current Geom=AllCheck Guess=Read



