%nprocshared=3
%mem=6GB
%Chk=WIOZZYWDYUOMAY-UHFFFAOYSA-N_conf_0_0.chk
# opt=CalcFc B3LYP/6-31G** SCRF=(Solvent=water) scf=xqc 

WIOZZYWDYUOMAY-UHFFFAOYSA-N_conf_0

0 1
O -3.735849299514483 0.3410384394105322 -0.3959993885529035
C -2.7136962479217903 0.0855885050751649 -1.0089835574909798
C -1.3401085254775666 0.027686489088474247 -0.4401124665559505
C -0.22563624781395467 0.021949210038014505 -1.2982240879034668
C 1.0849301642456601 0.01004016484240141 -0.7996110378062408
N 2.1370134139417893 -0.13824613656296422 -1.721512126325012
C 1.2668727520244458 -0.08882965451903391 0.5920924693522672
C 2.5959558427407696 -0.18424770159173842 1.2527117311945895
O 3.627272540813047 0.19500535078208403 0.47114831005763946
O 2.7902638406365403 -0.5138843540665539 2.409447585464181
C 0.150855876179181 -0.09230199608788073 1.4487616114277804
C -1.1555353201679248 0.015049181478734028 0.9549570435517712
N -2.2194019723501843 -0.12968023647794447 1.8618015422568206
O -2.7489729576547486 -0.1730912317845367 -2.3295944525229775
H -0.37780991665110825 0.01766235901452341 -2.3756171908379984
H 3.0410006356277264 0.11310684016535515 -1.3102388557104996
H 1.9825791555028318 0.30876583355532733 -2.619414192412367
H 4.402038021113843 0.08717035174221432 1.064398819657804
H 0.30611827907261757 -0.1918175460204552 2.5224699805291313
H -3.1200740047458253 0.17989878812654048 1.4822105767892038
H -2.0460499159057317 0.23233061561863338 2.7938430928529296
H -3.7017661136948647 -0.12319327182685862 -2.55453540701576


--Link1--
%nprocshared=3
%mem=6GB
%Oldchk=WIOZZYWDYUOMAY-UHFFFAOYSA-N_conf_0_0.chk
%Chk=WIOZZYWDYUOMAY-UHFFFAOYSA-N_conf_0_1.chk
# freq B3LYP/6-31G** SCRF=(Solvent=water) volume NMR pop=NPA density=current Geom=AllCheck Guess=Read


--Link1--
%nprocshared=3
%mem=6GB
%Oldchk=WIOZZYWDYUOMAY-UHFFFAOYSA-N_conf_0_1.chk
%Chk=WIOZZYWDYUOMAY-UHFFFAOYSA-N_conf_0_2.chk
# TD(NStates=10, Root=1) B3LYP/6-31G** SCRF=(Solvent=water) volume pop=NPA density=current Geom=AllCheck Guess=Read



