%nprocshared=3
%mem=6GB
%Chk=WIOZZYWDYUOMAY-UHFFFAOYSA-N_conf_3_0.chk
# opt=CalcFc B3LYP/6-31G** SCRF=(Solvent=water) scf=xqc 

WIOZZYWDYUOMAY-UHFFFAOYSA-N_conf_3

0 1
O 2.804110306630859 0.17743616781599614 2.4110268773009746
C 2.6157594196127816 -0.037792330964874575 1.2266322699945005
C 1.2968104195425567 -0.000583458498531888 0.5403902231166803
C 0.16547166434085733 -0.005704617036404234 1.3771940400962968
C -1.1364711696392116 0.0026388196252234123 0.858185444612755
N -2.2040239170695117 0.1370271469089779 1.7632756340724054
C -1.2940586031115402 0.11479917585542558 -0.5347645244981882
C -2.611645143899875 0.20858077327660768 -1.2182194334768646
O -3.654449350339999 -0.18449579907924335 -0.45921053361647446
O -2.786637099170971 0.5479044251299938 -2.375296328385979
C -0.1622948739334382 0.137558852832938 -1.3706993948390038
C 1.1373137409924592 0.03232624726649237 -0.8564637920535376
N 2.2122295677069337 0.20352756237448622 -1.7465002712353797
O 3.6402696413171967 -0.40405791920762607 0.43022006712847427
H 0.3060641080238815 -0.004661499303842893 2.4575986245180843
H -3.099959416824333 -0.11766499679603791 1.3371847006034487
H -2.0603228644101246 -0.3114781887732975 2.6623881253002906
H -4.419699828293328 -0.07441712252569625 -1.064175713313311
H -0.3001182958806884 0.2514778965093733 -2.445440110275258
H 3.0938847772949463 -0.1345295294252954 -1.3496090821159936
H 2.049277232013982 -0.14706552530359787 -2.684978505294611
H 4.408489685096548 -0.3908260806811303 1.0412616823601812


--Link1--
%nprocshared=3
%mem=6GB
%Oldchk=WIOZZYWDYUOMAY-UHFFFAOYSA-N_conf_3_0.chk
%Chk=WIOZZYWDYUOMAY-UHFFFAOYSA-N_conf_3_1.chk
# freq B3LYP/6-31G** SCRF=(Solvent=water) volume NMR pop=NPA density=current Geom=AllCheck Guess=Read


--Link1--
%nprocshared=3
%mem=6GB
%Oldchk=WIOZZYWDYUOMAY-UHFFFAOYSA-N_conf_3_1.chk
%Chk=WIOZZYWDYUOMAY-UHFFFAOYSA-N_conf_3_2.chk
# TD(NStates=10, Root=1) B3LYP/6-31G** SCRF=(Solvent=water) volume pop=NPA density=current Geom=AllCheck Guess=Read



