%nprocshared=2
%mem=4GB
%Chk=PIICEJLVQHRZGT-UHFFFAOYSA-N_conf_0_0.chk
# opt=CalcFc B3LYP/6-31G** SCRF=(Solvent=water) scf=xqc 

PIICEJLVQHRZGT-UHFFFAOYSA-N_conf_0

0 1
N -1.669499825466452 0.2725568568933464 -0.20899181369809017
C -0.7045529521138348 -0.7216036901350553 0.274524958340775
C 0.6963588267241447 -0.10655690484414551 0.45773973708589316
N 1.0869693032616063 0.6990390301944829 -0.7061789851825029
H -1.1864974549697886 0.7926490648372022 -0.9509913696574785
H -1.7935385879609071 0.9772189924809744 0.5183515348774866
H -1.0553357522617486 -1.1523627116550383 1.2178557926507216
H -0.6530207591092185 -1.5327523691715499 -0.4603598365767397
H 0.698858152715347 0.5410990937572857 1.3414096438206105
H 1.4306238521166816 -0.9020505603991272 0.6227593989353714
H 2.041327680819085 1.032774376788827 -0.574093411622903
H 1.10830751624508 0.09998882125280352 -1.5320256489731885


--Link1--
%nprocshared=2
%mem=4GB
%Oldchk=PIICEJLVQHRZGT-UHFFFAOYSA-N_conf_0_0.chk
%Chk=PIICEJLVQHRZGT-UHFFFAOYSA-N_conf_0_1.chk
# freq B3LYP/6-31G** SCRF=(Solvent=water) volume NMR pop=NPA density=current Geom=AllCheck Guess=Read


--Link1--
%nprocshared=2
%mem=4GB
%Oldchk=PIICEJLVQHRZGT-UHFFFAOYSA-N_conf_0_1.chk
%Chk=PIICEJLVQHRZGT-UHFFFAOYSA-N_conf_0_2.chk
# TD(NStates=10, Root=1) B3LYP/6-31G** SCRF=(Solvent=water) volume pop=NPA density=current Geom=AllCheck Guess=Read



