%nprocshared=3
%mem=6GB
%Chk=KIDHWZJUCRJVML-UHFFFAOYSA-N_conf_0_0.chk
# opt=CalcFc B3LYP/6-31G** SCRF=(Solvent=water) scf=xqc 

KIDHWZJUCRJVML-UHFFFAOYSA-N_conf_0

0 1
N -2.3593000133533897 0.03603540080772459 -1.320229083305104
C -2.0444682707260644 -0.6200964202692912 -0.0572938532787577
C -0.5489255527542792 -0.8892702215180311 0.12382441537379797
C 0.2920451638923017 0.38720421816287504 0.22057385574244873
C 1.7577779791496801 0.05901482649640971 0.5015869027833258
N 2.5435699416463 1.2847634579887937 0.5714684594749864
H -1.9485334386764577 -0.48807019837225035 -2.0920730550986715
H -1.928117252071042 0.9592037545067955 -1.3492732347863592
H -2.4212614344294057 -0.008431244802318143 0.7697184745276582
H -2.58431728434359 -1.5726188922523958 -0.02025974112224686
H -0.18192266855719136 -1.5115336722789614 -0.7021611682775128
H -0.4163424035306085 -1.476599050618529 1.041110928694228
H -0.10556609386792237 1.0264039213378973 1.0189342841711369
H 0.22106738868234138 0.9544422437520108 -0.7152093453624543
H 1.850999762137623 -0.4869051981679498 1.4467963222019267
H 2.160118609878834 -0.5779904267364103 -0.2933613956466434
H 3.510067593951995 1.0547185923993923 0.7997886595681398
H 2.2031079729709186 1.869728909564388 1.3337674952488885


--Link1--
%nprocshared=3
%mem=6GB
%Oldchk=KIDHWZJUCRJVML-UHFFFAOYSA-N_conf_0_0.chk
%Chk=KIDHWZJUCRJVML-UHFFFAOYSA-N_conf_0_1.chk
# freq B3LYP/6-31G** SCRF=(Solvent=water) volume NMR pop=NPA density=current Geom=AllCheck Guess=Read


--Link1--
%nprocshared=3
%mem=6GB
%Oldchk=KIDHWZJUCRJVML-UHFFFAOYSA-N_conf_0_1.chk
%Chk=KIDHWZJUCRJVML-UHFFFAOYSA-N_conf_0_2.chk
# TD(NStates=10, Root=1) B3LYP/6-31G** SCRF=(Solvent=water) volume pop=NPA density=current Geom=AllCheck Guess=Read



