%nprocshared=3
%mem=6GB
%Chk=KIDHWZJUCRJVML-UHFFFAOYSA-N_conf_1_0.chk
# opt=CalcFc B3LYP/6-31G** SCRF=(Solvent=water) scf=xqc 

KIDHWZJUCRJVML-UHFFFAOYSA-N_conf_1

0 1
N -1.6722227894818624 1.0663466362644614 -0.6628662428283768
C -1.819597390718058 -0.3177828862125141 -0.24015197964538748
C -0.5949214651307178 -0.8597071122887167 0.501712748654443
C 0.6857958158978412 -0.9579863184514601 -0.3377756780508565
C 1.4542942338267348 0.3500291458855925 -0.5388341343043643
N 1.8889848795825372 0.9304017918176954 0.7298912003877327
H -2.5809807006917045 1.4444553259337405 -0.924122441862118
H -1.336349927883768 1.626856563175743 0.12165123095298618
H -2.031875833712639 -0.9395169578128001 -1.1165257090107763
H -2.6877778562960435 -0.39051525476063853 0.4248826105700249
H -0.8469020094233726 -1.8744100584494066 0.8372218653937203
H -0.4189337461462834 -0.2781663774606034 1.4142778633530715
H 1.3564681263496594 -1.6761174456824994 0.15292859010557577
H 0.4479521424136571 -1.3876012225333156 -1.3186309406041328
H 2.3416899502749815 0.14497805838962866 -1.1489109806747875
H 0.8607976279874514 1.0817009499691193 -1.0915514736857177
H 2.446809261916826 1.7616373940868542 0.538795030757367
H 2.5067696812348093 0.27539776812904226 1.2068649648220489


--Link1--
%nprocshared=3
%mem=6GB
%Oldchk=KIDHWZJUCRJVML-UHFFFAOYSA-N_conf_1_0.chk
%Chk=KIDHWZJUCRJVML-UHFFFAOYSA-N_conf_1_1.chk
# freq B3LYP/6-31G** SCRF=(Solvent=water) volume NMR pop=NPA density=current Geom=AllCheck Guess=Read


--Link1--
%nprocshared=3
%mem=6GB
%Oldchk=KIDHWZJUCRJVML-UHFFFAOYSA-N_conf_1_1.chk
%Chk=KIDHWZJUCRJVML-UHFFFAOYSA-N_conf_1_2.chk
# TD(NStates=10, Root=1) B3LYP/6-31G** SCRF=(Solvent=water) volume pop=NPA density=current Geom=AllCheck Guess=Read



