%nprocshared=3
%mem=6GB
%Chk=SSJXIUAHEKJCMH-OLQVQODUSA-N_conf_1_0.chk
# opt=CalcFc B3LYP/6-31G** SCRF=(Solvent=water) scf=xqc 

SSJXIUAHEKJCMH-OLQVQODUSA-N_conf_1

0 1
N 0.646880702692478 2.384172942746759 0.05969172278383446
C 0.24802277554407148 1.0231745000692394 -0.3282391588022745
C 0.7184887303927824 -0.031487858070768655 0.7044045746464893
N 2.1288776081025755 0.16161044333818214 1.0790290960340858
C 0.47365967821173943 -1.451398636548602 0.16902524519226922
C -0.7674287152225922 -1.5540869572506817 -0.7260687409099916
C -1.8132547548592832 -0.49436703539129734 -0.4018073332036676
C -1.2697725385095822 0.9327041549663659 -0.5435481269420629
H 1.618362664616519 2.3089277505581567 0.3830390036231072
H 0.1409738782411236 2.643713574007188 0.9066773828435994
H 0.7462482878226788 0.8139202370899732 -1.2845870469157308
H 0.13072064063192004 0.09999529979586814 1.6229141499892794
H 2.7110579478042562 0.06924877092560211 0.24580292704734732
H 2.4164161773159565 -0.5908334581286563 1.7045641252492003
H 0.3715440699992588 -2.136500994999195 1.0203885732591775
H 1.3372750537185125 -1.810650813596145 -0.40567818616123646
H -1.2024711792242608 -2.5559171534358995 -0.6352518945800626
H -0.4638361835038841 -1.442918406560271 -1.7749006907297402
H -2.6905590373034807 -0.6178957757010844 -1.0469720400040645
H -2.162788380249873 -0.6449317050567402 0.6276194952617934
H -1.8099093606876773 1.5729039052296054 0.16601533791294837
H -1.508508065534806 1.3206172160135052 -1.5421184155931766


--Link1--
%nprocshared=3
%mem=6GB
%Oldchk=SSJXIUAHEKJCMH-OLQVQODUSA-N_conf_1_0.chk
%Chk=SSJXIUAHEKJCMH-OLQVQODUSA-N_conf_1_1.chk
# freq B3LYP/6-31G** SCRF=(Solvent=water) volume NMR pop=NPA density=current Geom=AllCheck Guess=Read


--Link1--
%nprocshared=3
%mem=6GB
%Oldchk=SSJXIUAHEKJCMH-OLQVQODUSA-N_conf_1_1.chk
%Chk=SSJXIUAHEKJCMH-OLQVQODUSA-N_conf_1_2.chk
# TD(NStates=10, Root=1) B3LYP/6-31G** SCRF=(Solvent=water) volume pop=NPA density=current Geom=AllCheck Guess=Read



