%nprocshared=4
%mem=8GB
%Chk=NAQMVNRVTILPCV-UHFFFAOYSA-N_conf_0_0.chk
# opt=CalcFc B3LYP/6-31G** SCRF=(Solvent=water) scf=xqc 

NAQMVNRVTILPCV-UHFFFAOYSA-N_conf_0

0 1
N -2.2681979303994635 1.434664357440382 -0.883228940724529
C -2.818927191670559 0.09857807557305968 -1.0445365483653892
C -2.072243962447737 -0.963995082708282 -0.2327371067226375
C -0.6145483340913092 -1.1892622562594048 -0.6537216962872588
C 0.3820993107871498 -0.2989957376060764 0.09602884293982833
C 1.821675628688204 -0.5977306278507651 -0.3372512303813673
C 2.870328177879676 0.16545131826137688 0.47490305494130003
N 2.740361498358065 1.6094632459464935 0.32990721876781476
H -2.8748868597822685 2.114446422832209 -1.3383605324400418
H -2.2416575898479274 1.683863541885256 0.10466317948736835
H -3.86833931971439 0.10916445987326047 -0.7289189410045479
H -2.8048105987828023 -0.16842853238722943 -2.1068572852468708
H -2.610545114288669 -1.9101799830669834 -0.3751357892886149
H -2.131848081655107 -0.7371950870469101 0.8388169393629241
H -0.5055760105265289 -1.058149327938822 -1.7368495674248237
H -0.3605329442814262 -2.235339832884986 -0.438699264356698
H 0.2825314590155566 -0.47050060330985816 1.1747156292569445
H 0.158729328546468 0.7560258462751028 -0.08608553958340877
H 1.9388004854056367 -0.36650861741317275 -1.4036013111564964
H 2.0183294392266227 -1.6712898043834896 -0.2253279426750804
H 3.8688468108310796 -0.13757424410564206 0.14081028138865018
H 2.7865926394527865 -0.09785319180726502 1.5347729082213555
H 2.770111279877624 1.86127062990813 -0.6571862962182041
H 3.533707879419512 2.070075030773556 0.7722976883846704


--Link1--
%nprocshared=4
%mem=8GB
%Oldchk=NAQMVNRVTILPCV-UHFFFAOYSA-N_conf_0_0.chk
%Chk=NAQMVNRVTILPCV-UHFFFAOYSA-N_conf_0_1.chk
# freq B3LYP/6-31G** SCRF=(Solvent=water) volume NMR pop=NPA density=current Geom=AllCheck Guess=Read


--Link1--
%nprocshared=4
%mem=8GB
%Oldchk=NAQMVNRVTILPCV-UHFFFAOYSA-N_conf_0_1.chk
%Chk=NAQMVNRVTILPCV-UHFFFAOYSA-N_conf_0_2.chk
# TD(NStates=10, Root=1) B3LYP/6-31G** SCRF=(Solvent=water) volume pop=NPA density=current Geom=AllCheck Guess=Read



