%nprocshared=4
%mem=8GB
%Chk=NAQMVNRVTILPCV-UHFFFAOYSA-N_conf_2_0.chk
# opt=CalcFc B3LYP/6-31G** SCRF=(Solvent=water) scf=xqc 

NAQMVNRVTILPCV-UHFFFAOYSA-N_conf_2

0 1
N 3.8398613272788427 0.9783607595397507 0.9712293772829643
C 2.7055995120414296 0.06512111456714903 0.8891098060134376
C 1.5902149756123605 0.6508953909554169 0.02356641196986825
C 0.3983408401567536 -0.30599079128224455 -0.06560247573976948
C -0.7196352557742257 0.2802967950713025 -0.9303175412128237
C -1.8882744247188292 -0.6863651895817102 -1.154236426338076
C -2.619322837531302 -1.1516465644170701 0.10786694431626065
N -3.216545230843283 -0.05419401570767179 0.8586145101573145
H 4.18716280309991 1.178415934988726 0.03391315748596333
H 3.5328328967356724 1.8725169955484107 1.3525637110689916
H 3.047363754501361 -0.8887547575276344 0.47302798793691786
H 2.3361290483585244 -0.13386320873161894 1.9008920028816623
H 1.9715404987726213 0.8546752456169051 -0.984973569353339
H 1.2581803103384501 1.6089574756946836 0.4430951678828049
H 0.02522667750230059 -0.5067892084903404 0.9449088918353326
H 0.727032344463577 -1.262908809745598 -0.48857600066053186
H -0.3095709310882793 0.5468927278822283 -1.912696630618542
H -1.082559547681232 1.2142136933455223 -0.4855773329412632
H -2.6088944464945802 -0.20580172719060777 -1.8284893263242121
H -1.517580568517022 -1.5723240236226972 -1.6850190896473412
H -1.945763923735272 -1.7143167103886192 0.7619986361610298
H -3.4179158328419152 -1.8433753435988285 -0.18272814730864365
H -2.488562787116164 0.572129335087857 1.198079496983087
H -3.804859202519962 0.503854881986801 0.24099836686287396


--Link1--
%nprocshared=4
%mem=8GB
%Oldchk=NAQMVNRVTILPCV-UHFFFAOYSA-N_conf_2_0.chk
%Chk=NAQMVNRVTILPCV-UHFFFAOYSA-N_conf_2_1.chk
# freq B3LYP/6-31G** SCRF=(Solvent=water) volume NMR pop=NPA density=current Geom=AllCheck Guess=Read


--Link1--
%nprocshared=4
%mem=8GB
%Oldchk=NAQMVNRVTILPCV-UHFFFAOYSA-N_conf_2_1.chk
%Chk=NAQMVNRVTILPCV-UHFFFAOYSA-N_conf_2_2.chk
# TD(NStates=10, Root=1) B3LYP/6-31G** SCRF=(Solvent=water) volume pop=NPA density=current Geom=AllCheck Guess=Read



