%nprocshared=3
%mem=6GB
%Chk=GVOYKJPMUUJXBS-UHFFFAOYSA-N_conf_0_0.chk
# opt=CalcFc B3LYP/6-31G** SCRF=(Solvent=water) scf=xqc 

GVOYKJPMUUJXBS-UHFFFAOYSA-N_conf_0

0 1
N 2.6553362079074416 -0.07550700664254355 -0.03878659961937654
C 1.605332838561547 -0.32270539691014527 -1.0232353091434716
C 0.23346228178481848 -0.31111070905934884 -0.39058633352720135
C -0.42571572241613564 -1.5398827362433782 -0.19359994216840964
C -1.6710054780513308 -1.593825200438592 0.43037149377732775
C -2.263956079263055 -0.42314077276647805 0.8869945954248117
C -1.6177734366645748 0.8003163859495576 0.704154553321266
C -0.39364157008606715 0.8811396321004861 0.024949880533118824
N 0.2700677225502574 2.120168233664063 -0.013750141455977898
H 2.5990051286473776 -0.8037990063014925 0.6729373083633075
H 2.40668956584389 0.7825169627277576 0.46117733041321085
H 1.6551050925728208 0.42695779045864074 -1.8208651265184077
H 1.7975929221715994 -1.2858693750527883 -1.5100873794249106
H 0.0399935313864152 -2.4686349951142255 -0.5171546765726365
H -2.1659858685670828 -2.550000973371212 0.5778382003541517
H -3.220992346527665 -0.46018346100653756 1.400171716593147
H -2.0813632304337073 1.7000348653062627 1.1008990281200197
H -0.36036538651474503 2.915840872353029 0.021905650878621712
H 0.9382138270982056 2.207684890346697 -0.773334249348548


--Link1--
%nprocshared=3
%mem=6GB
%Oldchk=GVOYKJPMUUJXBS-UHFFFAOYSA-N_conf_0_0.chk
%Chk=GVOYKJPMUUJXBS-UHFFFAOYSA-N_conf_0_1.chk
# freq B3LYP/6-31G** SCRF=(Solvent=water) volume NMR pop=NPA density=current Geom=AllCheck Guess=Read


--Link1--
%nprocshared=3
%mem=6GB
%Oldchk=GVOYKJPMUUJXBS-UHFFFAOYSA-N_conf_0_1.chk
%Chk=GVOYKJPMUUJXBS-UHFFFAOYSA-N_conf_0_2.chk
# TD(NStates=10, Root=1) B3LYP/6-31G** SCRF=(Solvent=water) volume pop=NPA density=current Geom=AllCheck Guess=Read



