%nprocshared=3
%mem=6GB
%Chk=GVOYKJPMUUJXBS-UHFFFAOYSA-N_conf_2_0.chk
# opt=CalcFc B3LYP/6-31G** SCRF=(Solvent=water) scf=xqc 

GVOYKJPMUUJXBS-UHFFFAOYSA-N_conf_2

0 1
N 2.38458397922556 0.8419174823099924 0.5571596880488469
C 1.7974621220014235 -0.11328728442970597 -0.3865084969754472
C 0.3170700016042474 -0.3127920647736469 -0.15403017260340596
C -0.16764125676208752 -1.6099600095612774 0.09456622323997922
C -1.5338137742097049 -1.8455440805806906 0.24971485290580112
C -2.434875231788783 -0.7921651596195893 0.13726752590673236
C -1.9676468313559916 0.4991738945444769 -0.10911204103508902
C -0.5954903999196669 0.7601507607014367 -0.20473357958754773
N -0.16591800725889103 2.0551416621618275 -0.5539744374927408
H 2.2196486344950093 0.4945518405464857 1.5019095593018372
H 3.3950886580265296 0.8434921904669243 0.42831768239335394
H 1.9551225149730325 0.2373419474783404 -1.4128683180707424
H 2.3312723660348897 -1.0660059266937603 -0.29185875743487616
H 0.519136714624677 -2.451222115127333 0.15311154679682362
H -1.8951151700107827 -2.853411338101781 0.43572183261538516
H -3.5020864647678436 -0.9744310272046334 0.227733560303244
H -2.6845550459537155 1.307616020612523 -0.2239084691857412
H -0.7746306505271884 2.785203266899014 -0.2012338042941683
H 0.8023878415691474 2.1942299403714056 -0.2472743948322255


--Link1--
%nprocshared=3
%mem=6GB
%Oldchk=GVOYKJPMUUJXBS-UHFFFAOYSA-N_conf_2_0.chk
%Chk=GVOYKJPMUUJXBS-UHFFFAOYSA-N_conf_2_1.chk
# freq B3LYP/6-31G** SCRF=(Solvent=water) volume NMR pop=NPA density=current Geom=AllCheck Guess=Read


--Link1--
%nprocshared=3
%mem=6GB
%Oldchk=GVOYKJPMUUJXBS-UHFFFAOYSA-N_conf_2_1.chk
%Chk=GVOYKJPMUUJXBS-UHFFFAOYSA-N_conf_2_2.chk
# TD(NStates=10, Root=1) B3LYP/6-31G** SCRF=(Solvent=water) volume pop=NPA density=current Geom=AllCheck Guess=Read



