%nprocshared=3
%mem=6GB
%Chk=GVOYKJPMUUJXBS-UHFFFAOYSA-N_conf_1_0.chk
# opt=CalcFc B3LYP/6-31G** SCRF=(Solvent=water) scf=xqc 

GVOYKJPMUUJXBS-UHFFFAOYSA-N_conf_1

0 1
N -2.6475769478540783 -0.19934824913582902 -0.0927776312460342
C -1.5790830684117667 -0.22608432190000466 -1.0879457962803527
C -0.21428220739687007 -0.2525642004366914 -0.4406231903850786
C 0.505802993984823 -1.4628025950602972 -0.44083273236314985
C 1.7476284817680978 -1.558630834671532 0.18501421615840102
C 2.2761927818770387 -0.4529223225004953 0.8397084778482048
C 1.569256307305105 0.7503601348304445 0.8531822636197159
C 0.34758214289456185 0.8829447726008667 0.1776959403851035
N -0.378711082931915 2.0765810254905324 0.3355917832298243
H -2.4470777073996848 0.5742018252758295 0.5470784390881379
H -2.559036203888396 -1.032734274826546 0.4883942522173722
H -1.6615420851741318 0.6430470325475793 -1.7501373421906359
H -1.7179631430868665 -1.1025565915499729 -1.7315164870786663
H 0.09088209063000155 -2.3462494108695338 -0.9219950798037764
H 2.2900718667666324 -2.5003001062661134 0.17883196475065033
H 3.2300928294015336 -0.5278513789733452 1.3545881244663562
H 1.983017239556092 1.5928686252603819 1.4016305227661876
H -1.0449128789192887 2.2567345210348524 -0.40923418289424324
H 0.209658590879216 2.885306349149819 0.5133464577120965


--Link1--
%nprocshared=3
%mem=6GB
%Oldchk=GVOYKJPMUUJXBS-UHFFFAOYSA-N_conf_1_0.chk
%Chk=GVOYKJPMUUJXBS-UHFFFAOYSA-N_conf_1_1.chk
# freq B3LYP/6-31G** SCRF=(Solvent=water) volume NMR pop=NPA density=current Geom=AllCheck Guess=Read


--Link1--
%nprocshared=3
%mem=6GB
%Oldchk=GVOYKJPMUUJXBS-UHFFFAOYSA-N_conf_1_1.chk
%Chk=GVOYKJPMUUJXBS-UHFFFAOYSA-N_conf_1_2.chk
# TD(NStates=10, Root=1) B3LYP/6-31G** SCRF=(Solvent=water) volume pop=NPA density=current Geom=AllCheck Guess=Read



