%nprocshared=4
%mem=8GB
%Chk=KDXKERNSBIXSRK-YFKPBYRVSA-N_conf_1_0.chk
# opt=CalcFc B3LYP/6-31G** SCRF=(Solvent=water) scf=xqc 

KDXKERNSBIXSRK-YFKPBYRVSA-N_conf_1

0 1
N -2.6627989219273567 -1.1243064710525834 -0.5086361188139683
C -2.024812141823537 -0.03564590530026504 0.2614971304392971
C -0.5861130475423978 0.19668140854275995 -0.2287910077330776
C 0.32819466847576717 -1.0202864766981996 -0.03694522411707087
C 1.7588922523672659 -0.7920140553221123 -0.5393827955119507
C 2.5352066635927537 0.23640894539232693 0.28299236949153267
N 3.9103580717814417 0.3295372479879755 -0.19496434416063532
C -2.887686735011023 1.2341181428467585 0.15240155719913748
O -2.2525866685245646 2.3642743813795715 0.5198191440107623
O -4.073880950011098 1.2754528632300244 -0.14434146930043454
H -2.357239967641465 -2.0248616267410275 -0.14595572825846126
H -3.6739196366961515 -1.0777935430061876 -0.3564663421632389
H -2.022284697193455 -0.31347313348436173 1.3223482188732452
H -0.1604063714396781 1.0466559085192715 0.31601452437083766
H -0.5969768878668339 0.4868519029488459 -1.2877334575871069
H 0.351289519057669 -1.3021898137738808 1.0226581731863709
H -0.08005749308439922 -1.8775362441897296 -0.5846870435013085
H 2.2857014430238336 -1.754572842125899 -0.5028194993657948
H 1.7326261991449043 -0.48774969905373405 -1.5933698172924153
H 2.5375295939234563 -0.04757258444499671 1.3409005072498432
H 2.0741679822901666 1.225005127815938 0.2014837034907378
H 4.370873686305104 -0.574619507992921 -0.09946106492659545
H 4.430325172649066 0.9793697289750334 0.3931792631485898
H -2.9364017338492774 3.058266245547504 0.41025932127146314


--Link1--
%nprocshared=4
%mem=8GB
%Oldchk=KDXKERNSBIXSRK-YFKPBYRVSA-N_conf_1_0.chk
%Chk=KDXKERNSBIXSRK-YFKPBYRVSA-N_conf_1_1.chk
# freq B3LYP/6-31G** SCRF=(Solvent=water) volume NMR pop=NPA density=current Geom=AllCheck Guess=Read


--Link1--
%nprocshared=4
%mem=8GB
%Oldchk=KDXKERNSBIXSRK-YFKPBYRVSA-N_conf_1_1.chk
%Chk=KDXKERNSBIXSRK-YFKPBYRVSA-N_conf_1_2.chk
# TD(NStates=10, Root=1) B3LYP/6-31G** SCRF=(Solvent=water) volume pop=NPA density=current Geom=AllCheck Guess=Read



