%nprocshared=4
%mem=8GB
%Chk=KDXKERNSBIXSRK-YFKPBYRVSA-N_conf_4_0.chk
# opt=CalcFc B3LYP/6-31G** SCRF=(Solvent=water) scf=xqc 

KDXKERNSBIXSRK-YFKPBYRVSA-N_conf_4

0 1
N 2.7342260713635387 -1.7269676784280292 0.3333643767716922
C 1.6591580475274788 -0.7779912881403357 -0.058228081598107134
C 0.657858167946294 -0.670689287892404 1.0981597932278402
C -0.5739238042381007 0.20684085829577026 0.831007588387646
C -1.43187223785553 -0.27932333518184843 -0.34131833642368675
C -2.6669423249197055 0.5897845257706482 -0.5939845195171005
N -3.6307743538434987 0.5172359110007044 0.4977319002813421
C 2.2518168324558028 0.594004408295381 -0.4095243974484032
O 3.468128914131795 0.8168398505034989 0.13865395848453735
O 1.720161359372286 1.4591021475382486 -1.0873123120239951
H 3.385813665925352 -1.8097925957754462 -0.4480514807347517
H 3.28482213425174 -1.2737049867396026 1.0681791424576017
H 1.1925976675145085 -1.1847886438797084 -0.9602822039928509
H 1.1656434427054785 -0.2677095145870679 1.9850892691892965
H 0.3096933246241167 -1.676129409768341 1.370258894611897
H -1.1747764009100194 0.21221676485153398 1.7481458239253216
H -0.2667871358114838 1.2447899963487696 0.6607707116253827
H -0.8352904373494765 -0.27498764247330676 -1.2603098737377096
H -1.7388806817575801 -1.3184329566834567 -0.16879970388861665
H -2.370132139523391 1.6322040694049103 -0.7542129469884172
H -3.1575537505110973 0.24635131626196313 -1.5113331153187035
H -3.233742324634041 0.9334190773436547 1.338482715906663
H -4.444717147338576 1.0846896435962272 0.2636257523399582
H 3.6954731108733636 1.7230387703380412 -0.15872843588049726


--Link1--
%nprocshared=4
%mem=8GB
%Oldchk=KDXKERNSBIXSRK-YFKPBYRVSA-N_conf_4_0.chk
%Chk=KDXKERNSBIXSRK-YFKPBYRVSA-N_conf_4_1.chk
# freq B3LYP/6-31G** SCRF=(Solvent=water) volume NMR pop=NPA density=current Geom=AllCheck Guess=Read


--Link1--
%nprocshared=4
%mem=8GB
%Oldchk=KDXKERNSBIXSRK-YFKPBYRVSA-N_conf_4_1.chk
%Chk=KDXKERNSBIXSRK-YFKPBYRVSA-N_conf_4_2.chk
# TD(NStates=10, Root=1) B3LYP/6-31G** SCRF=(Solvent=water) volume pop=NPA density=current Geom=AllCheck Guess=Read



