%nprocshared=6
%mem=12GB
%Chk=DZIHTWJGPDVSGE-ROTMJFINSA-N_conf_1_0.chk
# opt=CalcFc B3LYP/6-31G** SCRF=(Solvent=water) scf=xqc 

DZIHTWJGPDVSGE-ROTMJFINSA-N_conf_1

0 1
N -4.899626809681657 0.47210601502822513 1.0579441077835774
C -3.5384470843370046 0.2206648235613483 0.5862496762134638
C -3.2096418093820374 1.0677026365794142 -0.642104389736163
C -1.7472425654067891 0.8884024741760143 -1.068915100829137
C -1.2001014953958578 -0.5468957690205822 -0.9034483825599178
C -0.2594443583736509 -0.6983522882779172 0.3191171860050456
C 1.2361166565954163 -0.47266801772799993 -0.0014641651700985137
C 1.553898302208407 0.9686396508614834 -0.4352091419405608
C 3.04114272180075 1.3360160299153103 -0.34434369717604174
C 3.9407180201794705 0.10157718250025174 -0.31319530530678724
N 5.3543567428373 0.47414855277708634 -0.28198078895636053
C 3.6078977629683906 -0.784952852237741 0.8944584830719624
C 2.107191965627972 -0.8598243011249038 1.2018086170925601
C -2.3580020932381816 -1.5548299214400767 -0.8331884152026725
C -3.3497512926060855 -1.2759988085732026 0.2994917649437563
H -5.567298522900929 0.238014411266964 0.32373489909739844
H -5.020471160817222 1.4683181668918361 1.2374770633595005
H -2.8601790866063155 0.5088168041814801 1.3983430759669255
H -3.393857317514341 2.1310458710981472 -0.444331831775994
H -3.868160685117712 0.7904491065886862 -1.4761271687962874
H -1.6629888356312095 1.184897245318102 -2.122189651937786
H -1.1353431426557623 1.6033392956715486 -0.510640991278722
H -0.6196343967510478 -0.7910356423065299 -1.8030428206624938
H -0.5693133349727941 -0.03275657767800716 1.133615367140173
H -0.3537809472283635 -1.720062798798817 0.7102827617077214
H 1.4983503804151037 -1.1477457270289304 -0.8280796838513846
H 0.9959620979280855 1.6857084106698972 0.17860232309338533
H 1.2145303723732002 1.1114362649944673 -1.46839656558546
H 3.2028823431216598 1.9310592633027603 0.564862854874558
H 3.3013712844807235 1.988801512140978 -1.1868788504882144
H 3.7771476155598025 -0.476449780297379 -1.2312513003328531
H 5.546897627286467 1.028514475863895 0.5517722290732484
H 5.5656905368245395 1.0791940199749313 -1.0747496735127078
H 4.121683119019026 -0.43112268777016644 1.798203770630687
H 3.9927345946068966 -1.7958815548524494 0.7070738219600865
H 1.8653979635052678 -1.8721861214790978 1.547365923149535
H 1.881420294917532 -0.187661661830028 2.0403459439878033
H -2.9005735309719665 -1.5242502825497657 -1.7878790865837835
H -1.9758604404434885 -2.5789267841145356 -0.7430205788470348
H -3.0140216794594505 -1.7723909627918868 1.2190802120196924
H -4.301649812764163 -1.7548596734627868 0.03426779902651041


--Link1--
%nprocshared=6
%mem=12GB
%Oldchk=DZIHTWJGPDVSGE-ROTMJFINSA-N_conf_1_0.chk
%Chk=DZIHTWJGPDVSGE-ROTMJFINSA-N_conf_1_1.chk
# freq B3LYP/6-31G** SCRF=(Solvent=water) volume NMR pop=NPA density=current Geom=AllCheck Guess=Read


--Link1--
%nprocshared=6
%mem=12GB
%Oldchk=DZIHTWJGPDVSGE-ROTMJFINSA-N_conf_1_1.chk
%Chk=DZIHTWJGPDVSGE-ROTMJFINSA-N_conf_1_2.chk
# TD(NStates=10, Root=1) B3LYP/6-31G** SCRF=(Solvent=water) volume pop=NPA density=current Geom=AllCheck Guess=Read



