%nprocshared=6
%mem=12GB
%Chk=DZIHTWJGPDVSGE-ROTMJFINSA-N_conf_0_0.chk
# opt=CalcFc B3LYP/6-31G** SCRF=(Solvent=water) scf=xqc 

DZIHTWJGPDVSGE-ROTMJFINSA-N_conf_0

0 1
N 4.120713753740178 1.4351166274036362 -0.39489183653920656
C 4.138590892957263 -0.021915727770090144 -0.2333343050132844
C 3.1516102980211156 -0.6721837708720775 -1.2033785609195253
C 1.6848088418630032 -0.3492297177597844 -0.8941466203564504
C 1.3686011264053255 -0.20451877644227637 0.6061963710345165
C -0.05030381463623139 -0.6912462511801684 0.9814149505168499
C -1.214271306615971 0.23475529886579483 0.5543798172438171
C -1.5889258897374043 0.09331121056972427 -0.9302081475238149
C -2.8122438831483993 0.9356064131702935 -1.3032623126259326
C -4.030505672194111 0.6502186447192126 -0.4212239322493859
N -4.554469337357127 -0.6894981686163877 -0.6941487354892316
C -3.6557456881349264 0.7857024308416533 1.0569454358011652
C -2.4432157150977556 -0.06360862518917473 1.4387879797729461
C 2.416425595392855 -0.9488811120349491 1.4483370922788081
C 3.839535740265936 -0.4298320938360855 1.2182171803303536
H 3.211388056064983 1.808519238339828 -0.12866744432647587
H 4.7936244400506745 1.856360267034592 0.24459627055616076
H 5.151720617432157 -0.3547618875450184 -0.48802138435564846
H 3.2876627212539304 -1.7612273781413634 -1.1603627337811844
H 3.3772698555601024 -0.3843307297715453 -2.2379622070783816
H 1.0665498305369756 -1.1310660935288488 -1.3512356120863274
H 1.4220542997368828 0.5892335438333163 -1.3972028594968633
H 1.4339768729323261 0.8584677030031728 0.8740451944174089
H -0.2148118567139461 -1.7058626342001468 0.5961798386318884
H -0.0836634821264546 -0.7785776023620594 2.0760476950855624
H -0.9179307096862334 1.2758555743807556 0.7401150021667365
H -1.7784016540909713 -0.9601927836732627 -1.169957208853681
H -0.7636274326342734 0.41774862236752125 -1.5676969338885782
H -2.549482585448033 1.997646479453016 -1.210763034386461
H -3.0587865700724213 0.7721574676167011 -2.3598491240985995
H -4.818209111002724 1.3754665000467194 -0.6567739677121912
H -5.3934137000687725 -0.8491887229396407 -0.13802937627881115
H -4.839332431948095 -0.7535969344900529 -1.6706067213262594
H -4.507019172510856 0.5154376979310182 1.69405356240286
H -3.432372637598921 1.8387452815878957 1.2722709046928518
H -2.700929048138683 -1.128208414644998 1.3714792485121348
H -2.1976850164046775 0.13209676643196022 2.4899699061896854
H 2.3801589093082316 -2.0200950490861302 1.209358196613503
H 2.1837860634626667 -0.8658800445121417 2.5170390947568855
H 4.03410125429345 0.4076846810417424 1.9009704106232206
H 4.542767546089502 -1.2162279300427576 1.5218607533996633


--Link1--
%nprocshared=6
%mem=12GB
%Oldchk=DZIHTWJGPDVSGE-ROTMJFINSA-N_conf_0_0.chk
%Chk=DZIHTWJGPDVSGE-ROTMJFINSA-N_conf_0_1.chk
# freq B3LYP/6-31G** SCRF=(Solvent=water) volume NMR pop=NPA density=current Geom=AllCheck Guess=Read


--Link1--
%nprocshared=6
%mem=12GB
%Oldchk=DZIHTWJGPDVSGE-ROTMJFINSA-N_conf_0_1.chk
%Chk=DZIHTWJGPDVSGE-ROTMJFINSA-N_conf_0_2.chk
# TD(NStates=10, Root=1) B3LYP/6-31G** SCRF=(Solvent=water) volume pop=NPA density=current Geom=AllCheck Guess=Read



