%nprocshared=6
%mem=12GB
%Chk=DZIHTWJGPDVSGE-ROTMJFINSA-N_conf_3_0.chk
# opt=CalcFc B3LYP/6-31G** SCRF=(Solvent=water) scf=xqc 

DZIHTWJGPDVSGE-ROTMJFINSA-N_conf_3

0 1
N -3.9536812066003986 1.4106220042709248 0.0937697424503085
C -3.9912936872850713 -0.0017159309242263247 0.48029451728881917
C -3.574917502508234 -0.8865566966372583 -0.7011228720150465
C -2.090383233212833 -0.7530987381384379 -1.051674266343311
C -1.1970355607554064 -1.0141246827954509 0.17365531213425492
C 0.3066880309842839 -0.9539109403971638 -0.1797649963060541
C 0.872971011799892 0.4426765159215807 -0.5392348804433318
C 1.8627103960171534 0.35490494094583563 -1.7166570107054557
C 3.187412146294484 -0.30402119077559964 -1.3342047210024506
C 3.8475429435900033 0.4307062024993734 -0.16502596122145177
N 5.083012324214875 -0.25042011252730834 0.2186779175098961
C 2.9045698230326917 0.5170559227077064 1.0375152179651124
C 1.5567663908794007 1.1350525692149487 0.6566717750843409
C -1.5918917285653196 -0.1051179402584456 1.3449927323984974
C -3.077430121306563 -0.24730023818386046 1.687562569368895
H -4.278907717677691 1.9862405952628184 0.8693438725482473
H -4.6014111578176475 1.571893955340304 -0.6763341454886059
H -5.022446298687794 -0.24690228362227995 0.7607085068277764
H -4.181674570697503 -0.6556892533733544 -1.5855383785704804
H -3.785644151341145 -1.934199266573702 -0.4494478806254799
H -1.8478791547758786 -1.4690573266502156 -1.8462569734645375
H -1.9048242468400047 0.245149268018844 -1.462961515070358
H -1.3898123403404044 -2.0499791974324446 0.48985809952293674
H 0.46378421621650645 -1.6423380090307624 -1.0206675968033647
H 0.8680993922175966 -1.3850143764159852 0.6571171547213336
H 0.04956868071997217 1.0867814981286508 -0.86752992323899
H 1.4082834494821626 -0.1874202944863361 -2.5544269161151743
H 2.066648053866928 1.369557485128749 -2.0833995557213534
H 3.853715399191298 -0.29815283578782475 -2.2058481467551383
H 3.015036195636366 -1.3568668001940674 -1.07671925705342
H 4.1038546211076135 1.448329090883699 -0.4862187783753187
H 5.54421704842874 0.2704296339267759 0.9634060776875103
H 5.728640403380263 -0.25896705010862536 -0.5697876027881364
H 2.7457300586873945 -0.4792286069889447 1.4681453815933232
H 3.362546491179512 1.1245776576051247 1.82841215544906
H 1.7211660388888672 2.1896627889242093 0.398623204425603
H 0.9033810801731893 1.13466696727866 1.5344423711777635
H -1.382268141727575 0.9433795791643043 1.1062112542240319
H -0.9955650273339535 -0.35912992486065165 2.2292377053064625
H -3.2580249912773334 -1.260864107950123 2.0686722656521224
H -3.3312533572388614 0.43838912889051984 2.505503544771563


--Link1--
%nprocshared=6
%mem=12GB
%Oldchk=DZIHTWJGPDVSGE-ROTMJFINSA-N_conf_3_0.chk
%Chk=DZIHTWJGPDVSGE-ROTMJFINSA-N_conf_3_1.chk
# freq B3LYP/6-31G** SCRF=(Solvent=water) volume NMR pop=NPA density=current Geom=AllCheck Guess=Read


--Link1--
%nprocshared=6
%mem=12GB
%Oldchk=DZIHTWJGPDVSGE-ROTMJFINSA-N_conf_3_1.chk
%Chk=DZIHTWJGPDVSGE-ROTMJFINSA-N_conf_3_2.chk
# TD(NStates=10, Root=1) B3LYP/6-31G** SCRF=(Solvent=water) volume pop=NPA density=current Geom=AllCheck Guess=Read



