%nprocshared=7
%mem=14GB
%Chk=IXVDJDOFHBHDMT-UHFFFAOYSA-N_conf_0_0.chk
# opt=CalcFc B3LYP/6-31G** SCRF=(Solvent=water) scf=xqc 

IXVDJDOFHBHDMT-UHFFFAOYSA-N_conf_0

0 1
C 7.181259068300532 0.5622148236633193 1.2040461449636881
C 5.881252883647453 -0.08627337837516048 0.8349665616455605
C 5.852596160876396 -1.2015839318521244 -0.0034902582800742463
C 4.632159301425727 -1.7829411167646654 -0.366103242072836
C 3.4079057965795503 -1.250496931535656 0.062128957562432675
N 2.2340512534375288 -1.917781535092969 -0.28873980808514044
C 0.924962439805254 -1.283944144766704 -0.18922544954882756
C 0.7239550606723525 -0.2576411384904356 -1.306600474359155
C -0.6740754808962686 0.36403555670496485 -1.3011055292599287
C -0.9097236609257155 1.291553337591776 -0.10686036434053252
N -2.211257902204274 1.942259951669954 -0.19679347577686557
C -3.4007112948607228 1.2552508379258245 0.04842094652301698
C -3.482747063967468 0.0813536149412454 0.803676759854859
C -4.715192346729436 -0.5292888660988594 1.0706426812780123
C -5.905802656062189 0.043890376653411306 0.6192962596486995
C -7.223243917093713 -0.6225182120474743 0.8781335746223405
C -5.840893741855158 1.229793181636833 -0.11373488268673508
C -4.605611906001958 1.8327688924267556 -0.3762073622020853
C 3.452944689467845 -0.14889947105996354 0.9221730659470565
C 4.6701966528613035 0.43928959674060525 1.290422750892286
H 7.417811796647236 1.3585719392171713 0.49154174481039503
H 7.998360539785383 -0.1669928549458159 1.202243430564727
H 7.131102565834243 0.9901481677263648 2.2109458092200196
H 6.77749640709576 -1.636380595311918 -0.37441616939598354
H 4.648087442238402 -2.667474718112094 -0.9980333960677759
H 2.3430723133071565 -2.4769695316346927 -1.1311242137466315
H 0.7696651067021985 -0.8530678925350557 0.804124364214432
H 0.1697783057464721 -2.0724560449623857 -0.29318430759768754
H 1.4775402367809096 0.5364607972017263 -1.244399228653968
H 0.8792549723506404 -0.7520784203769804 -2.2743289129225515
H -1.428214223296806 -0.431247128786328 -1.3287908850849595
H -0.8007234034427708 0.9389328002802185 -2.2275804987637313
H -0.7919131163062303 0.7750581924156543 0.8500739304225342
H -0.1474045486719752 2.0800390414920287 -0.11539635548279752
H -2.2861237414950866 2.5736734070570777 -0.990455031645471
H -2.591956685621433 -0.38942493367050945 1.2055163533043864
H -4.733606327685859 -1.4518824126381935 1.6462708747236534
H -7.192919368153273 -1.2028333201233385 1.8065035496202033
H -7.472397830907608 -1.2941032292779329 0.05051864070799101
H -8.021014412520604 0.12065965539485222 0.9861783524564904
H -6.749468508020732 1.7021139742128246 -0.47892925443251894
H -4.593910644170586 2.771129467397814 -0.9254895857561463
H 2.5445788140926053 0.2809249043307704 1.3303525364531998
H 4.660880973233099 1.3061572917777806 1.947168406400347


--Link1--
%nprocshared=7
%mem=14GB
%Oldchk=IXVDJDOFHBHDMT-UHFFFAOYSA-N_conf_0_0.chk
%Chk=IXVDJDOFHBHDMT-UHFFFAOYSA-N_conf_0_1.chk
# freq B3LYP/6-31G** SCRF=(Solvent=water) volume NMR pop=NPA density=current Geom=AllCheck Guess=Read


--Link1--
%nprocshared=7
%mem=14GB
%Oldchk=IXVDJDOFHBHDMT-UHFFFAOYSA-N_conf_0_1.chk
%Chk=IXVDJDOFHBHDMT-UHFFFAOYSA-N_conf_0_2.chk
# TD(NStates=10, Root=1) B3LYP/6-31G** SCRF=(Solvent=water) volume pop=NPA density=current Geom=AllCheck Guess=Read



