%nprocshared=7
%mem=14GB
%Chk=IXVDJDOFHBHDMT-UHFFFAOYSA-N_conf_4_0.chk
# opt=CalcFc B3LYP/6-31G** SCRF=(Solvent=water) scf=xqc 

IXVDJDOFHBHDMT-UHFFFAOYSA-N_conf_4

0 1
C 7.462802765190769 -1.7959430818598512 1.1659559414480278
C 6.178186698238731 -1.0827831860166028 0.8691285989776596
C 5.7061223436841235 -0.07943625462281138 1.7167223939490182
C 4.49124015707586 0.5611078939927903 1.4473182037482646
C 3.696716722434304 0.19589624040284212 0.3511575731490452
N 2.526915390187422 0.9258310658211247 0.1052100312627172
C 1.5147798492299762 0.3776799463629476 -0.7914659555668085
C 0.3065490042967774 1.3150535357603526 -0.8246052579954138
C -0.7655811813232021 0.8029269233741125 -1.7910026582583016
C -1.9768009027118358 1.7342844113632288 -1.8664761102758711
N -2.6805882726141923 1.790869599604112 -0.5914357174960843
C -3.7410335965350234 0.9346690141479868 -0.2930822101272354
C -4.524178212732981 1.2166961494088728 0.835496582736897
C -5.565033967553682 0.3717332247924837 1.2372293809015527
C -5.827868610044104 -0.8060077826270724 0.5366732977213028
C -6.95958253908365 -1.7016538349864914 0.9417200477335095
C -5.041450242972701 -1.1113469484892913 -0.5763376573044713
C -4.001288006598757 -0.2595097499132457 -0.9716194340591188
C 4.194168337725187 -0.7916143465934286 -0.5047172338854514
C 5.408688114263363 -1.4381690762969659 -0.24086522268293406
H 8.14705820161703 -1.153452578569925 1.7301054188285754
H 7.263378776352073 -2.6981518360656573 1.751907997649992
H 7.973633658491188 -2.078426267566837 0.2393147582321438
H 6.281232082746218 0.22153412958757765 2.588910772913903
H 4.1654526822836235 1.3572792405599392 2.1124385043863847
H 2.131011648137697 1.2801152337988764 0.9734186328274803
H 1.917575255555351 0.2869545725844697 -1.8069176000708593
H 1.2011158425885544 -0.6157070519020661 -0.4482038738156749
H -0.10899957935203411 1.4081201365925546 0.18668524999006272
H 0.6271034673761706 2.3199362703264694 -1.1268115866694604
H -0.3313760989900104 0.7179072354797119 -2.7948588703580812
H -1.0727458519302502 -0.20535779496600853 -1.4904114944760987
H -1.630902883355014 2.7455991136804796 -2.112791607679361
H -2.6451465087168566 1.440166234996743 -2.68402533170936
H -2.8613415759222436 2.74177057564785 -0.27898543588351365
H -4.327930351374276 2.1110609542941847 1.421403160433074
H -6.158945364624356 0.639613075948169 2.10778470229551
H -7.133861702880377 -1.6484815733246876 2.021464349461799
H -7.875020063096936 -1.4056285484592486 0.4212532812943132
H -6.7367030741085365 -2.746061750997247 0.6997537527501009
H -5.222443966646954 -2.0215907515703653 -1.1437383615214551
H -3.4058741967325594 -0.5577235649068413 -1.8278045117945823
H 3.6496056100361973 -1.0842296677883987 -1.3964842335019305
H 5.751360142389177 -2.215529131005554 -0.9200513781003032


--Link1--
%nprocshared=7
%mem=14GB
%Oldchk=IXVDJDOFHBHDMT-UHFFFAOYSA-N_conf_4_0.chk
%Chk=IXVDJDOFHBHDMT-UHFFFAOYSA-N_conf_4_1.chk
# freq B3LYP/6-31G** SCRF=(Solvent=water) volume NMR pop=NPA density=current Geom=AllCheck Guess=Read


--Link1--
%nprocshared=7
%mem=14GB
%Oldchk=IXVDJDOFHBHDMT-UHFFFAOYSA-N_conf_4_1.chk
%Chk=IXVDJDOFHBHDMT-UHFFFAOYSA-N_conf_4_2.chk
# TD(NStates=10, Root=1) B3LYP/6-31G** SCRF=(Solvent=water) volume pop=NPA density=current Geom=AllCheck Guess=Read



