%nprocshared=4
%mem=8GB
%Chk=KQIKKETXZQDHGE-FOCLMDBBSA-N_conf_1_0.chk
# opt=CalcFc B3LYP/6-31G** SCRF=(Solvent=water) scf=xqc 

KQIKKETXZQDHGE-FOCLMDBBSA-N_conf_1

0 1
N -5.880626269334662 -0.0017441088749805761 0.41213350345695055
C -4.488117203477956 -0.05980905562117833 0.29198122822784633
C -3.8395877881070635 -1.2939331393797784 0.2097729806896945
C -2.462546204327442 -1.3622360322319036 -0.029054411368584256
C -1.7148138894953016 -0.19854161089043323 -0.22304912571260085
N -0.33806555230676943 -0.3028771089028785 -0.4926474807295171
N 0.3287909079988395 0.3295681863908408 0.3560710435323773
C 1.7062810878751644 0.2144565701716398 0.09393067331296934
C 2.276288532720212 0.6691150001626559 -1.1006740364199792
C 3.654798033211033 0.5664380250197096 -1.3168203522246529
C 4.495060672528277 0.05705262877286944 -0.32452645325290164
N 5.8521376978838475 -0.15356533923699284 -0.5893276308842749
C 3.9212355198211863 -0.4393007834227313 0.8479987950401435
C 2.54287174862795 -0.3380964228088363 1.066553851613366
C -2.378791784908238 1.033404350342021 -0.21317621478490692
C -3.7557290733998148 1.0990623745848638 0.026099027384313134
H -6.225579745698062 0.8836307622119526 0.7695851868955955
H -6.284673082843225 -0.7962668971089233 0.8980555090610253
H -4.3999791712915695 -2.217144241967433 0.3297029655492867
H -1.9705059022384355 -2.3300933893042384 -0.0750393482611205
H 1.640660079603427 1.0920612844635074 -1.8739235171741755
H 4.064466690713982 0.8917337303977865 -2.2691916387526736
H 6.429171017382513 -0.2218221500600858 0.2430131841089353
H 6.241525277933872 0.48269776213559196 -1.2778343912163765
H 4.541968848865773 -0.9088432457645963 1.6062402200102937
H 2.1153741554705996 -0.7080653469222576 1.9945706825249088
H -1.8221129387886 1.946495008392434 -0.40578496199802955
H -4.24950166441905 2.066623189451471 0.0008128453852628898


--Link1--
%nprocshared=4
%mem=8GB
%Oldchk=KQIKKETXZQDHGE-FOCLMDBBSA-N_conf_1_0.chk
%Chk=KQIKKETXZQDHGE-FOCLMDBBSA-N_conf_1_1.chk
# freq B3LYP/6-31G** SCRF=(Solvent=water) volume NMR pop=NPA density=current Geom=AllCheck Guess=Read


--Link1--
%nprocshared=4
%mem=8GB
%Oldchk=KQIKKETXZQDHGE-FOCLMDBBSA-N_conf_1_1.chk
%Chk=KQIKKETXZQDHGE-FOCLMDBBSA-N_conf_1_2.chk
# TD(NStates=10, Root=1) B3LYP/6-31G** SCRF=(Solvent=water) volume pop=NPA density=current Geom=AllCheck Guess=Read



