%nprocshared=5
%mem=10GB
%Chk=NVKGJHAQGWCWDI-UHFFFAOYSA-N_conf_0_0.chk
# opt=CalcFc B3LYP/6-31G** SCRF=(Solvent=water) scf=xqc 

NVKGJHAQGWCWDI-UHFFFAOYSA-N_conf_0

0 1
N 4.939149168633238 0.5608842304756507 -0.38274928254606694
C 3.5503518476573355 0.4439188297102488 -0.47500911063332
C 2.7472620224828517 1.5807446944780328 -0.4896196003373473
C 1.3546432141561635 1.4703357026690882 -0.46337974300660256
C 0.7257324862040628 0.2169815906073261 -0.37250854520191956
C -0.7453217508234445 0.15949953260529193 -0.3583347598981477
C -1.4239344648998582 -0.1386523096988619 -1.5521834391187406
C -2.81926385428242 -0.19697008641979732 -1.5960109336116548
C -3.578003048419972 0.0875007729853257 -0.46422875386122225
N -4.963863240070464 -0.08593185028715836 -0.4805402544438418
C -2.912991887034879 0.32957445698139043 0.7386626140591372
C -1.50448581046831 0.3868383205368092 0.8096901837020036
C -0.8502968904111936 0.7006171363326613 2.1357466485049295
F -0.28416992118474277 1.9404955462666609 2.1542635097399283
F -1.7242660634958626 0.6902732562375133 3.1847021406011313
F 0.13513116585327523 -0.17337726345181487 2.479644353188862
C 1.5331650165988013 -0.9380097242772046 -0.2928693439480121
C 0.9346314304228063 -2.32145458442714 -0.1802440538112695
F 0.32456427981061137 -2.7180261805012202 -1.3329301544402077
F 1.8595248772669541 -3.289678567316306 0.08687208477261463
F 0.0006189423277268894 -2.434643284781393 0.8036305532640005
C 2.937542330250199 -0.8013949420997394 -0.3285698339778335
H 5.314594724230704 1.4140089848437112 -0.7852106572418791
H 5.452420762607762 -0.26392703099658954 -0.6773909087548563
H 3.1970321678838722 2.5698351405131277 -0.522923105936535
H 0.758003923080925 2.3810441064093553 -0.5000018261823382
H -0.8639745701088973 -0.34442428086653454 -2.4636721083953823
H -3.3064330843568968 -0.4672835571593892 -2.5294444191643737
H -5.3901908924168165 0.038953510878617856 -1.3934502205640624
H -5.460278834015669 0.41507550865628534 0.24962454729258554
H -3.4990947437275524 0.47665794891462243 1.6452106169033123
H 3.562200696249601 -1.6894656078183743 -0.2385070175186791


--Link1--
%nprocshared=5
%mem=10GB
%Oldchk=NVKGJHAQGWCWDI-UHFFFAOYSA-N_conf_0_0.chk
%Chk=NVKGJHAQGWCWDI-UHFFFAOYSA-N_conf_0_1.chk
# freq B3LYP/6-31G** SCRF=(Solvent=water) volume NMR pop=NPA density=current Geom=AllCheck Guess=Read


--Link1--
%nprocshared=5
%mem=10GB
%Oldchk=NVKGJHAQGWCWDI-UHFFFAOYSA-N_conf_0_1.chk
%Chk=NVKGJHAQGWCWDI-UHFFFAOYSA-N_conf_0_2.chk
# TD(NStates=10, Root=1) B3LYP/6-31G** SCRF=(Solvent=water) volume pop=NPA density=current Geom=AllCheck Guess=Read



