%nprocshared=8
%mem=16GB
%Chk=HYDATEKARGDBKU-UHFFFAOYSA-N_conf_0_0.chk
# opt=CalcFc B3LYP/6-31G** SCRF=(Solvent=water) scf=xqc 

HYDATEKARGDBKU-UHFFFAOYSA-N_conf_0

0 1
N -9.021960613445684 -0.8943160205803499 -0.804164281732262
C -7.918707824309933 -0.5632457697293738 -0.009286021492777654
C -6.990964615092723 0.3839980527042426 -0.45268745497683327
C -5.823967220667184 0.6364474781970934 0.27428097385591055
C -5.550777549657174 -0.10569693348909796 1.4236416982259865
O -4.438062214537195 0.11054462116549457 2.2031714396716695
C -3.222719136995453 0.1945676777730019 1.5631757961375228
C -2.359762522681747 1.2067812483982994 1.9764139483913838
C -1.0961737470768964 1.3291787368255046 1.3910059712491927
C -0.6684796411588931 0.43323789957256903 0.3960995352661574
C 0.662791730212198 0.5639469917455138 -0.2192506823622369
C 1.0767990645234669 1.7771182362331266 -0.7957064289850773
C 2.340258774353736 1.903198077005895 -1.3806022881707085
C 3.2166888830374267 0.8206558371398983 -1.3832554677940982
O 4.431172690002026 1.0024434637948474 -2.0042902648278518
C 5.54862998435115 0.5182618754632827 -1.3644451756509934
C 5.816099918070124 0.767829897152125 -0.01810502669516975
C 6.98814842756716 0.27097024461558167 0.559408021997321
C 7.926056459832202 -0.4232055528701456 -0.21066925688160365
N 9.035553870457825 -1.0193931907031688 0.3993954248450737
C 7.628458428998588 -0.695251502968796 -1.549135338716339
C 6.4590336016530845 -0.2023268735186009 -2.134217826937183
C 2.8193852304848286 -0.400170458955228 -0.8377625478124289
C 1.5544308982540145 -0.5221143504171837 -0.254108029013573
C -1.5464805278195444 -0.5947864710991647 0.011341018711008417
C -2.8115246723242517 -0.7205268216912933 0.5939968529700858
C -6.450720740057901 -1.0768548226041048 1.8567786432127775
C -7.615136014010222 -1.32277490465494 1.1243067838722938
H -9.781471956495206 -1.3301877163363554 -0.2907024060880048
H -9.343222077130058 -0.1351331417936297 -1.3965713547773413
H -7.1720179513364535 0.940742921316649 -1.3681525027449908
H -5.134924289201561 1.4029641666971446 -0.06814409728499463
H -2.6688840905719418 1.9022454924324508 2.7517713356223967
H -0.4361380153435994 2.1251562383416482 1.730059068201394
H 0.40601341656442214 2.6339451477664784 -0.8068108848710788
H 2.63869735699646 2.8457655520024008 -1.8310766520034103
H 5.118802292083361 1.3366183399927138 0.5900431524072123
H 7.165017886982478 0.43754268395241813 1.618548641899002
H 9.798904148013712 -1.2162313754581442 -0.2401902445313241
H 9.34916660929924 -0.5405297007184728 1.237796673184125
H 8.308603898724881 -1.2914927383180141 -2.1512152320058857
H 6.251393416728575 -0.39779766774477704 -3.182327712308723
H 3.4815760392802564 -1.2612463750247997 -0.8629681890155885
H 1.2699252823230849 -1.477422081495538 0.18299814802486644
H -1.2512161573178053 -1.3071698681425932 -0.7567519133920969
H -3.4630504548258263 -1.5339610023185362 0.28664758237068255
H -6.238558563523909 -1.6557363245729837 2.751065815780533
H -8.286687713213007 -2.1121636996765183 1.450650755175846


--Link1--
%nprocshared=8
%mem=16GB
%Oldchk=HYDATEKARGDBKU-UHFFFAOYSA-N_conf_0_0.chk
%Chk=HYDATEKARGDBKU-UHFFFAOYSA-N_conf_0_1.chk
# freq B3LYP/6-31G** SCRF=(Solvent=water) volume NMR pop=NPA density=current Geom=AllCheck Guess=Read


--Link1--
%nprocshared=8
%mem=16GB
%Oldchk=HYDATEKARGDBKU-UHFFFAOYSA-N_conf_0_1.chk
%Chk=HYDATEKARGDBKU-UHFFFAOYSA-N_conf_0_2.chk
# TD(NStates=10, Root=1) B3LYP/6-31G** SCRF=(Solvent=water) volume pop=NPA density=current Geom=AllCheck Guess=Read



