%nprocshared=3
%mem=6GB
%Chk=VHRGRCVQAFMJIZ-UHFFFAOYSA-N_conf_2_0.chk
# opt=CalcFc B3LYP/6-31G** SCRF=(Solvent=water) scf=xqc 

VHRGRCVQAFMJIZ-UHFFFAOYSA-N_conf_2

0 1
N 2.9353459640162174 -0.7818109642815857 0.2503553476545812
C 2.3423560411082667 0.5109034752399148 0.5693322569860901
C 1.180049140253139 0.8618318368474533 -0.36188367836556506
C -0.028079227995207505 -0.06889646658862761 -0.21082560777934997
C -1.1897331703057341 0.388480227996685 -1.0994444487126014
C -2.3908208951441874 -0.5599153985023357 -1.068759226244326
N -3.0375495655406843 -0.6210947215470726 0.236909208307096
H 2.2641337602696083 -1.5271136184186742 0.4285828165707982
H 3.7204946514434662 -0.9561878942679959 0.8768566291246653
H 2.006634964745225 0.5141811717195977 1.6122070410878597
H 3.11599285417445 1.2805884346047496 0.4738749292074073
H 0.8675043802287107 1.8910958638118014 -0.14521412904027028
H 1.525782131836617 0.8523005564539292 -1.4033723812158374
H 0.24916846912065663 -1.0933979310127202 -0.48359882488823386
H -0.340301772884032 -0.08259508230878918 0.8395223940233817
H -1.5065049496109113 1.3966839141626428 -0.8040042279713056
H -0.8394492381781574 0.4618275530641874 -2.1366953883290276
H -3.1300252346082518 -0.22215865110111868 -1.8033259034870661
H -2.08407169690639 -1.5686025681681537 -1.366175251266221
H -2.3912226659977263 -0.9973218663130128 0.9280423653708854
H -3.269703940025006 0.3212021286089609 0.5482761079840858


--Link1--
%nprocshared=3
%mem=6GB
%Oldchk=VHRGRCVQAFMJIZ-UHFFFAOYSA-N_conf_2_0.chk
%Chk=VHRGRCVQAFMJIZ-UHFFFAOYSA-N_conf_2_1.chk
# freq B3LYP/6-31G** SCRF=(Solvent=water) volume NMR pop=NPA density=current Geom=AllCheck Guess=Read


--Link1--
%nprocshared=3
%mem=6GB
%Oldchk=VHRGRCVQAFMJIZ-UHFFFAOYSA-N_conf_2_1.chk
%Chk=VHRGRCVQAFMJIZ-UHFFFAOYSA-N_conf_2_2.chk
# TD(NStates=10, Root=1) B3LYP/6-31G** SCRF=(Solvent=water) volume pop=NPA density=current Geom=AllCheck Guess=Read



