%nprocshared=3
%mem=6GB
%Chk=VHRGRCVQAFMJIZ-UHFFFAOYSA-N_conf_0_0.chk
# opt=CalcFc B3LYP/6-31G** SCRF=(Solvent=water) scf=xqc 

VHRGRCVQAFMJIZ-UHFFFAOYSA-N_conf_0

0 1
N -2.512699228161517 1.549327615184269 0.8095420155288218
C -2.5489495697179376 0.11732999493677877 0.538426379547411
C -1.2010576205112597 -0.5581805858792408 0.8001998070152306
C -0.10461917515406677 -0.1297918374905032 -0.1809508948899072
C 1.2002002958331521 -0.889421231994442 0.0819169423812215
C 2.3007144107173705 -0.5626055484091332 -0.9294594918917836
N 2.6912270498824857 0.8409628148833388 -0.8795542924597989
H -3.421773192106763 1.956448785131278 0.5943869836310062
H -1.8468092065966764 2.0030333664304822 0.18503901090064728
H -2.8618901878549945 -0.05310167946317008 -0.4976165923546115
H -3.3055173141205616 -0.3380131784889367 1.1866355446526655
H -0.8779288768784681 -0.3552309747557244 1.8290876551009623
H -1.342912093244972 -1.6436276954334792 0.7249305600268009
H 0.07487651882005641 0.9469381980310466 -0.09147848647344828
H -0.4388984397600234 -0.32071422640313735 -1.207865109759922
H 1.5541510162253704 -0.6726171719177254 1.0977708554927756
H 1.0051271313689187 -1.9682414005225408 0.04048125728939107
H 3.177618560920612 -1.1848560437611213 -0.7193015100856193
H 1.9618328410828272 -0.8058372044311061 -1.9422300637378933
H 3.0119365349410363 1.0741848479187583 0.059615657998765045
H 3.4853705443157343 0.99401315643433 -1.4995762279125715


--Link1--
%nprocshared=3
%mem=6GB
%Oldchk=VHRGRCVQAFMJIZ-UHFFFAOYSA-N_conf_0_0.chk
%Chk=VHRGRCVQAFMJIZ-UHFFFAOYSA-N_conf_0_1.chk
# freq B3LYP/6-31G** SCRF=(Solvent=water) volume NMR pop=NPA density=current Geom=AllCheck Guess=Read


--Link1--
%nprocshared=3
%mem=6GB
%Oldchk=VHRGRCVQAFMJIZ-UHFFFAOYSA-N_conf_0_1.chk
%Chk=VHRGRCVQAFMJIZ-UHFFFAOYSA-N_conf_0_2.chk
# TD(NStates=10, Root=1) B3LYP/6-31G** SCRF=(Solvent=water) volume pop=NPA density=current Geom=AllCheck Guess=Read



