%nprocshared=4
%mem=8GB
%Chk=HFACYLZERDEVSX-UHFFFAOYSA-N_conf_1_0.chk
# opt=CalcFc B3LYP/6-31G** SCRF=(Solvent=water) scf=xqc 

HFACYLZERDEVSX-UHFFFAOYSA-N_conf_1

0 1
N 4.9662669209288595 -0.1316228458019126 -0.04436148299164884
C 3.57357979850119 -0.007603474371654193 0.009388264039389365
C 2.86171590080577 -0.5209879963152348 1.0935382536734959
C 1.461655851074114 -0.5078555341611233 1.1021853485088065
C 0.7357276510315789 -0.017990361187874972 0.006403832195111874
C -0.7358853952381831 -0.0029078819633609233 0.011137984113605457
C -1.4484550662442233 1.176063316310173 -0.2537835412055241
C -2.8484991544152356 1.1909549092786456 -0.247427084248267
C -3.5734781838802223 0.021082645239775245 -0.02070337514501245
N -4.966771013878913 0.0648778565292681 0.1003931868915566
C -2.8742677530373317 -1.1418441567419926 0.302407650266406
C -1.4742491491663061 -1.1604851735815715 0.2983832320315508
C 1.4606592371080909 0.4407472991844426 -1.1035266829256878
C 2.860694635340963 0.4246681999315046 -1.1088854036993112
H 5.411077496266838 -0.14340945089220503 0.8679754717445219
H 5.410784714497645 0.5217233515058657 -0.6813797942999785
H 3.389102064730642 -0.9347095195921471 1.948724095897292
H 0.9399916425471325 -0.8865737798879476 1.9786755014495072
H -0.9154016514772979 2.105369600789675 -0.4436313469278205
H -3.365476760474321 2.1307445914262195 -0.4210247386755113
H -5.418439243712245 -0.8317443140558177 -0.049333601359546314
H -5.400736760755172 0.8093107861749513 -0.43602387540753257
H -3.4116392767324246 -2.051043277281392 0.5578137928273721
H -0.9624893611601081 -2.0938960948862095 0.5234216501337939
H 0.9372823912267243 0.79334870268838 -1.989837843653103
H 3.3872504661123846 0.7537826016615027 -2.0005294932335045


--Link1--
%nprocshared=4
%mem=8GB
%Oldchk=HFACYLZERDEVSX-UHFFFAOYSA-N_conf_1_0.chk
%Chk=HFACYLZERDEVSX-UHFFFAOYSA-N_conf_1_1.chk
# freq B3LYP/6-31G** SCRF=(Solvent=water) volume NMR pop=NPA density=current Geom=AllCheck Guess=Read


--Link1--
%nprocshared=4
%mem=8GB
%Oldchk=HFACYLZERDEVSX-UHFFFAOYSA-N_conf_1_1.chk
%Chk=HFACYLZERDEVSX-UHFFFAOYSA-N_conf_1_2.chk
# TD(NStates=10, Root=1) B3LYP/6-31G** SCRF=(Solvent=water) volume pop=NPA density=current Geom=AllCheck Guess=Read



