%nprocshared=4
%mem=8GB
%Chk=MERLDGDYUMSLAY-UHFFFAOYSA-N_conf_3_0.chk
# opt=CalcFc B3LYP/6-31G** SCRF=(Solvent=water) scf=xqc 

MERLDGDYUMSLAY-UHFFFAOYSA-N_conf_3

0 1
N -3.7131615643296025 -0.33255820077709747 -2.8854960608477596
C -2.899695917885109 -0.7583224260617037 -1.8303718148692585
C -2.576909793074426 0.11829385913342254 -0.7921886768926888
C -1.8647282167637873 -0.3285918952313212 0.32561215698427665
C -1.4976012226920579 -1.6715915765109535 0.435260678713527
S -0.5936656850517726 -2.2360640781406325 1.8633028320274956
S 1.3187392830329976 -2.3711365073694286 1.1153402278997844
C 1.867732522330378 -0.6797203591262908 1.2283229371132784
C 2.300267728686484 -0.1499995522045951 2.445867874750217
C 2.7330529260695204 1.1780121963323742 2.522083677335391
C 2.7035161754782946 2.0047236792430536 1.3967107836500614
N 3.247192059527873 3.292177128832714 1.4533921716775855
C 2.331672802061456 1.450867773243875 0.16973546339338774
C 1.8987653885493174 0.12345064357999774 0.08622528217552292
C -1.8743727012519256 -2.565270550587311 -0.5694825150808546
C -2.5875075380560606 -2.1118408100190247 -1.684176268477434
H -3.644044108259009 -0.9090125165257247 -3.7182093723963
H -3.6352173351656645 0.657819862759256 -3.093551609935511
H -2.8772824686773077 1.161405040448497 -0.8426499542423247
H -1.6065803793923537 0.37964821062741677 1.1092848240052062
H 2.315319172314505 -0.766203340000569 3.3414207550061796
H 3.0941999163090803 1.56026845192437 3.473131309835597
H 3.2001783717130747 3.719507379511039 2.37300892818886
H 2.9160680624601536 3.9128133355242625 0.7217147736256456
H 2.3752680947734053 2.0484963966950005 -0.7368086307317875
H 1.5933839852795761 -0.27625806691836324 -0.8778062499161153
H -1.6275877903695921 -3.621056667035871 -0.4897720458779045
H -2.8970017675721014 -2.829857411427738 -2.438980658294048


--Link1--
%nprocshared=4
%mem=8GB
%Oldchk=MERLDGDYUMSLAY-UHFFFAOYSA-N_conf_3_0.chk
%Chk=MERLDGDYUMSLAY-UHFFFAOYSA-N_conf_3_1.chk
# freq B3LYP/6-31G** SCRF=(Solvent=water) volume NMR pop=NPA density=current Geom=AllCheck Guess=Read


--Link1--
%nprocshared=4
%mem=8GB
%Oldchk=MERLDGDYUMSLAY-UHFFFAOYSA-N_conf_3_1.chk
%Chk=MERLDGDYUMSLAY-UHFFFAOYSA-N_conf_3_2.chk
# TD(NStates=10, Root=1) B3LYP/6-31G** SCRF=(Solvent=water) volume pop=NPA density=current Geom=AllCheck Guess=Read



