%nprocshared=4
%mem=8GB
%Chk=MERLDGDYUMSLAY-UHFFFAOYSA-N_conf_4_0.chk
# opt=CalcFc B3LYP/6-31G** SCRF=(Solvent=water) scf=xqc 

MERLDGDYUMSLAY-UHFFFAOYSA-N_conf_4

0 1
N 4.442255493248475 1.558134859768355 -0.03743279055456259
C 3.5254554730677152 0.533315189980516 0.2209721257651003
C 2.3129158004999724 0.8167490062018767 0.8532440333121264
C 1.3389631124528039 -0.1748354457074127 1.0088743274161587
C 1.5476078839589642 -1.454146957003374 0.4886202421447054
S 0.2976770402678682 -2.7097093753580572 0.6811260863341339
S -0.6027569225245841 -2.6860243680102305 -1.1698622312691878
C -1.7029054553648697 -1.2924962315357174 -1.0163219643251273
C -1.3522777761464202 -0.06065433117987335 -1.5735123080764897
C -2.208017723169857 1.0385086366753633 -1.448634711801437
C -3.4437254760729394 0.9121896593709319 -0.8103359835591005
N -4.238761505427151 2.04093351432047 -0.5836086035175881
C -3.7653486087844197 -0.30742886267289987 -0.21026343483994653
C -2.9135067047612746 -1.410507720627353 -0.3301981101291041
C 2.7360585473739185 -1.7279030995736693 -0.19174048471211333
C 3.7065871863568702 -0.7318449635437646 -0.3425515329527573
H 5.388916348620993 1.2300646637964237 -0.20133625287296736
H 4.409815809103859 2.316549355751323 0.6367819335780076
H 2.1122975097643275 1.8151772438517977 1.2326318156065834
H 0.40934374683205305 0.06933642464751519 1.5179784583441496
H -0.40190871908403225 0.062165057165820596 -2.0880151858853715
H -1.8967866005667142 1.9964120191581598 -1.8567989404619956
H -4.12217505018152 2.7707657560754235 -1.279714090224803
H -5.2160911395853296 1.8265860689461777 -0.41172738744476683
H -4.685498967024494 -0.4120430603188066 0.3583938621370877
H -3.1966095230956677 -2.35338425923038 0.1309917152646216
H 2.910334276068993 -2.709791386629875 -0.6246175264962789
H 4.608141944172941 -0.9561173943184698 -0.9063710097245785


--Link1--
%nprocshared=4
%mem=8GB
%Oldchk=MERLDGDYUMSLAY-UHFFFAOYSA-N_conf_4_0.chk
%Chk=MERLDGDYUMSLAY-UHFFFAOYSA-N_conf_4_1.chk
# freq B3LYP/6-31G** SCRF=(Solvent=water) volume NMR pop=NPA density=current Geom=AllCheck Guess=Read


--Link1--
%nprocshared=4
%mem=8GB
%Oldchk=MERLDGDYUMSLAY-UHFFFAOYSA-N_conf_4_1.chk
%Chk=MERLDGDYUMSLAY-UHFFFAOYSA-N_conf_4_2.chk
# TD(NStates=10, Root=1) B3LYP/6-31G** SCRF=(Solvent=water) volume pop=NPA density=current Geom=AllCheck Guess=Read



