%nprocshared=4
%mem=8GB
%Chk=MERLDGDYUMSLAY-UHFFFAOYSA-N_conf_2_0.chk
# opt=CalcFc B3LYP/6-31G** SCRF=(Solvent=water) scf=xqc 

MERLDGDYUMSLAY-UHFFFAOYSA-N_conf_2

0 1
N 4.2703530666218965 1.7514476623156252 1.0118614259637586
C 3.5047422395179915 0.7109620522634622 0.4747407428451252
C 2.5060726724676674 0.9835385965887304 -0.4626614018073975
C 1.6551313409247903 -0.02975827752333678 -0.915827531454359
C 1.7627391372205885 -1.3229002881026997 -0.3991385319600583
S 0.6680384931365251 -2.6051762468687656 -0.9768450337241583
S -0.6466809256264774 -2.773043828386131 0.5978235549006614
C -1.7606142371653428 -1.419554847298065 0.2784923211590664
C -2.8073483292525148 -1.5592499817002383 -0.6351457603034842
C -3.6788167380697936 -0.4918247986364705 -0.8760371392384472
C -3.4950191963824713 0.7380799282976996 -0.24000570439468172
N -4.43727272228441 1.7600525131354952 -0.39568082769518587
C -2.4865150708966297 0.8505970142119277 0.7195221522831875
C -1.6122164990859773 -0.21291855051271985 0.9659386286834118
C 2.7251265220698926 -1.5885487082311 0.5774621440004508
C 3.5731749067566994 -0.5705314666824208 1.025999435460735
H 5.144869791921676 1.4454771811522376 1.4271073078824648
H 4.39901073066901 2.53529028118466 0.379660195897424
H 2.379528542635634 1.990420555316128 -0.8513067064476985
H 0.8955748137300038 0.206504716598649 -1.657245798872714
H -2.961302170883955 -2.499768190261118 -1.158146996591018
H -4.504975608765586 -0.6323085060038873 -1.567923679245293
H -4.085338640952528 2.6837710437736155 -0.16479279903732555
H -4.9213814735114685 1.74249840645873 -1.2876634842377666
H -2.3692080001507976 1.7701081564569765 1.286771246160374
H -0.8206686202964341 -0.09007241381292592 1.7016440446236991
H 2.8127570407457982 -2.5821724808301108 1.0099237441694346
H 4.2902389349054815 -0.7909195229036527 1.8123295768028405


--Link1--
%nprocshared=4
%mem=8GB
%Oldchk=MERLDGDYUMSLAY-UHFFFAOYSA-N_conf_2_0.chk
%Chk=MERLDGDYUMSLAY-UHFFFAOYSA-N_conf_2_1.chk
# freq B3LYP/6-31G** SCRF=(Solvent=water) volume NMR pop=NPA density=current Geom=AllCheck Guess=Read


--Link1--
%nprocshared=4
%mem=8GB
%Oldchk=MERLDGDYUMSLAY-UHFFFAOYSA-N_conf_2_1.chk
%Chk=MERLDGDYUMSLAY-UHFFFAOYSA-N_conf_2_2.chk
# TD(NStates=10, Root=1) B3LYP/6-31G** SCRF=(Solvent=water) volume pop=NPA density=current Geom=AllCheck Guess=Read



