%nprocshared=3
%mem=6GB
%Chk=XTBLDMQMUSHDEN-UHFFFAOYSA-N_conf_0_0.chk
# opt=CalcFc B3LYP/6-31G** SCRF=(Solvent=water) scf=xqc 

XTBLDMQMUSHDEN-UHFFFAOYSA-N_conf_0

0 1
N -2.894334403117167 1.284660626013859 -0.6734220732888974
C -1.6691022399122528 0.6954901547947093 -0.2812044701770647
C -0.4941826242778231 0.9837174425780902 -0.9804099497784936
C 0.7242565195130631 0.38448065121833946 -0.6205224985700748
C 1.9200142363487969 0.6987494846498247 -1.2872525837998445
C 3.1271067919050637 0.11254437197535525 -0.9032471392297388
C 3.1548733599483265 -0.7943895980224246 0.15176795802188223
C 1.9746870777326209 -1.1214795917292064 0.821351188709409
C 0.7507671987533318 -0.544581609402684 0.4440725189886962
C -0.44856937554885723 -0.8813929605180667 1.0931858699576085
C -1.6657907270020436 -0.3335211773113005 0.6801405737631829
N -2.8619077346667066 -0.6598787903699156 1.3620093927788215
H -2.7605682415343513 2.191151881856722 -1.1109273050519675
H -3.5036304160223266 1.3615686807720901 0.139818199301647
H -0.5211647089093756 1.702531001020006 -1.7948840897436225
H 1.9195911745235616 1.4093264670232237 -2.1107756609497113
H 4.044878745757965 0.3668797459056983 -1.426905002206156
H 4.094264529653501 -1.2502985581202324 0.4532650109276935
H 2.0159730189511125 -1.8364915376782798 1.6399867339768226
H -0.4363441502992612 -1.5986027592573355 1.9094265448660999
H -3.646107953117157 -0.5855364944776827 0.7154656534999327
H -2.824710078679964 -1.5849274309207944 1.7790611280037687


--Link1--
%nprocshared=3
%mem=6GB
%Oldchk=XTBLDMQMUSHDEN-UHFFFAOYSA-N_conf_0_0.chk
%Chk=XTBLDMQMUSHDEN-UHFFFAOYSA-N_conf_0_1.chk
# freq B3LYP/6-31G** SCRF=(Solvent=water) volume NMR pop=NPA density=current Geom=AllCheck Guess=Read


--Link1--
%nprocshared=3
%mem=6GB
%Oldchk=XTBLDMQMUSHDEN-UHFFFAOYSA-N_conf_0_1.chk
%Chk=XTBLDMQMUSHDEN-UHFFFAOYSA-N_conf_0_2.chk
# TD(NStates=10, Root=1) B3LYP/6-31G** SCRF=(Solvent=water) volume pop=NPA density=current Geom=AllCheck Guess=Read



