%nprocshared=7
%mem=14GB
%Chk=DXWQPWMYKQYRDS-UHFFFAOYSA-N_conf_1_0.chk
# opt=CalcFc B3LYP/6-31G** SCRF=(Solvent=water) scf=xqc

DXWQPWMYKQYRDS-UHFFFAOYSA-N_conf_1

0 1
 C                  4.14313000   -0.78993600    0.08451900
 N                  3.12402400   -1.50810200    0.70012200
 C                  2.25119000   -0.91956400    1.70479000
 C                  1.06998000   -0.13925300    1.14152200
 C                  0.53506100    0.93908700    1.85626400
 C                 -0.58474900    1.62478300    1.38380700
 C                 -1.19431700    1.26028700    0.17744100
 C                 -2.37527200    2.06873300   -0.35522900
 N                 -3.33703300    1.35638400   -1.17453100
 C                 -4.17189400    0.35709600   -0.69646000
 C                 -4.33896600    0.10630700    0.68049700
 C                 -5.23485300   -0.87198000    1.11507000
 C                 -5.97684500   -1.62826600    0.20662300
 C                 -5.80702400   -1.38922900   -1.16167700
 C                 -4.92144600   -0.41508300   -1.61062800
 C                 -0.65641700    0.18399000   -0.53767700
 C                  0.45756600   -0.50752000   -0.06170100
 C                  5.16227000   -1.48341300   -0.60296300
 C                  6.18126400   -0.79234200   -1.25017300
 C                  6.21987800    0.60651800   -1.23545200
 C                  5.21402200    1.29769800   -0.55899400
 C                  4.18444400    0.61837600    0.09536600
 H                  3.33295800   -2.48516600    0.84430100
 H                  2.81449000   -0.27025400    2.39171200
 H                  1.86786300   -1.74743000    2.31156400
 H                  0.99428000    1.24343600    2.79409500
 H                 -0.98468000    2.45740500    1.95822900
 H                 -2.89428000    2.54033000    0.48802500
 H                 -1.99580800    2.89397900   -0.96858700
 H                 -3.13375900    1.31825900   -2.16235100
 H                 -3.76543900    0.66567100    1.41075000
 H                 -5.34486400   -1.04485900    2.18243800
 H                 -6.66823000   -2.38953400    0.55374900
 H                 -6.36997800   -1.96762600   -1.88941000
 H                 -4.80280200   -0.23696800   -2.67682900
 H                 -1.11728600   -0.12062900   -1.47303000
 H                  0.86756800   -1.33759300   -0.62913400
 H                  5.14516400   -2.57054000   -0.62081000
 H                  6.95463800   -1.35291100   -1.76844200
 H                  7.01663700    1.14282400   -1.74107300
 H                  5.22340500    2.38422700   -0.53577600
 H                  3.40904300    1.18167900    0.60176700


--Link1--
%nprocshared=7
%mem=14GB
%Oldchk=DXWQPWMYKQYRDS-UHFFFAOYSA-N_conf_1_0.chk
%Chk=DXWQPWMYKQYRDS-UHFFFAOYSA-N_conf_1_1.chk
# freq B3LYP/6-31G** SCRF=(Solvent=water) volume NMR pop=NPA density=current Geom=AllCheck Guess=Read


--Link1--
%nprocshared=7
%mem=14GB
%Oldchk=DXWQPWMYKQYRDS-UHFFFAOYSA-N_conf_1_1.chk
%Chk=DXWQPWMYKQYRDS-UHFFFAOYSA-N_conf_1_2.chk
# TD(NStates=10, Root=1) B3LYP/6-31G** SCRF=(Solvent=water) volume pop=NPA density=current Geom=AllCheck Guess=Read




