%nprocshared=4
%mem=8GB
%Chk=HLBLWEWZXPIGSM-UHFFFAOYSA-N_conf_0_0.chk
# opt=CalcFc B3LYP/6-31G** SCRF=(Solvent=water) scf=xqc 

HLBLWEWZXPIGSM-UHFFFAOYSA-N_conf_0

0 1
N 4.813427183517377 0.7762641056231797 -1.3643863087636026
C 3.5987287355035225 0.3873952143348096 -0.7882521305484216
C 3.517459713404596 0.14590966108721198 0.5860965345002004
C 2.3428730149270773 -0.3549031074089417 1.1543621337882082
C 1.2474939207081792 -0.6441872703486408 0.3437085795527143
O 0.13440916952529003 -1.1677791773465125 0.9605390641064396
C -1.0917368228824118 -0.6801876666938368 0.5717493009765771
C -2.093209255085547 -1.612519947666515 0.3104294527665307
C -3.368811768618532 -1.1780980507529397 -0.059586251248067504
C -3.670299838812292 0.18585369282138667 -0.11341153552853053
N -4.910797004853251 0.6143466738636713 -0.5996106595552981
C -2.6474684744546764 1.1106570718055293 0.11718810329990946
C -1.3687589348332487 0.6845598004514023 0.4877955874855747
C 1.3438106770603884 -0.48489551909531875 -1.0390150165027638
C 2.522269067997785 0.016823309332581103 -1.5994280094645674
H 5.411517473398915 1.3091494793804892 -0.7410091955080486
H 4.713544911721346 1.2167849790890874 -2.2734767450283657
H 4.371571166700769 0.3429101651960083 1.228192349974676
H 2.2881934558774812 -0.5274575755582425 2.2253734481700875
H -1.8778965493612114 -2.6752323071303032 0.374720583160673
H -4.127907458424706 -1.9169216070835826 -0.30148598531362153
H -5.158963551864362 1.5567776788700436 -0.3155028173971239
H -5.664174616745258 -0.04701702510215067 -0.43973357792585677
H -2.8392210019712563 2.1754447140108066 0.016435538346636063
H -0.5984932259229337 1.4206017867280796 0.6987183052261652
H 0.5196011305362555 -0.764987286182238 -1.688801776468853
H 2.5928388829500877 0.1107082077753092 -2.679727083600252


--Link1--
%nprocshared=4
%mem=8GB
%Oldchk=HLBLWEWZXPIGSM-UHFFFAOYSA-N_conf_0_0.chk
%Chk=HLBLWEWZXPIGSM-UHFFFAOYSA-N_conf_0_1.chk
# freq B3LYP/6-31G** SCRF=(Solvent=water) volume NMR pop=NPA density=current Geom=AllCheck Guess=Read


--Link1--
%nprocshared=4
%mem=8GB
%Oldchk=HLBLWEWZXPIGSM-UHFFFAOYSA-N_conf_0_1.chk
%Chk=HLBLWEWZXPIGSM-UHFFFAOYSA-N_conf_0_2.chk
# TD(NStates=10, Root=1) B3LYP/6-31G** SCRF=(Solvent=water) volume pop=NPA density=current Geom=AllCheck Guess=Read



