%nprocshared=5
%mem=10GB
%Chk=XPAQFJJCWGSXGJ-UHFFFAOYSA-N_conf_3_0.chk
# opt=CalcFc B3LYP/6-31G** SCRF=(Solvent=water) scf=xqc 

XPAQFJJCWGSXGJ-UHFFFAOYSA-N_conf_3

0 1
O -0.8227586619295243 -1.9264087289501035 0.028240652017618276
C -0.02375720871258536 -1.0051094257821398 0.1431736489303809
N -0.29208666028887015 0.34707589168414543 0.025810007702934647
C -1.5506408617704415 0.9552226114344895 -0.16196317546722377
C -1.571860932504487 2.3414330034118658 -0.3504538449049562
C -2.7825442085635412 3.018130429239068 -0.5399688578045457
C -3.9890878793818696 2.3204251181761397 -0.583077443745074
N -5.203466111745005 3.010977237870191 -0.6529060295976497
C -3.9706601905555656 0.9488292615036128 -0.3295169479513598
C -2.7617093216603683 0.2659142596599811 -0.14128314455693763
C 1.4086360416011443 -1.337873321292752 0.3895819993538201
C 2.225664822171726 -0.5348356799751458 1.1932053056263385
C 3.564141817338224 -0.8871697352263804 1.3995970683399217
C 4.11065775292539 -2.0184955906913378 0.7870427654258052
N 5.411876913000696 -2.425965021734489 1.095819958071008
C 3.267857252660958 -2.854929146153281 0.05076769655569086
C 1.9289842923268803 -2.5124609841901946 -0.16216268621620036
H 0.5025253406456771 0.9716597237011755 -0.0005730394021299808
H -0.6524877672033386 2.920038516875821 -0.3435142301327612
H -2.7720248775894976 4.09862815145245 -0.6540523095471525
H -5.145362475145183 3.8968528869068497 -1.144496505556931
H -5.978146751675197 2.440505306452192 -0.9778642901095761
H -4.900126279216223 0.38802066213150993 -0.27561530898032427
H -2.806721432712105 -0.803576295712579 0.03823295799418064
H 1.8294482784734185 0.33946277954035686 1.7019102343761932
H 4.176839917305487 -0.27462732304476806 2.056526879935832
H 5.822933942536928 -3.0549786259635163 0.41289997948964824
H 6.038191995940929 -1.668918048688355 1.3500446105234134
H 3.6445657028724683 -3.787002193724609 -0.3628042289182513
H 1.2911175508942183 -3.1708257189250872 -0.7485856010094387


--Link1--
%nprocshared=5
%mem=10GB
%Oldchk=XPAQFJJCWGSXGJ-UHFFFAOYSA-N_conf_3_0.chk
%Chk=XPAQFJJCWGSXGJ-UHFFFAOYSA-N_conf_3_1.chk
# freq B3LYP/6-31G** SCRF=(Solvent=water) volume NMR pop=NPA density=current Geom=AllCheck Guess=Read


--Link1--
%nprocshared=5
%mem=10GB
%Oldchk=XPAQFJJCWGSXGJ-UHFFFAOYSA-N_conf_3_1.chk
%Chk=XPAQFJJCWGSXGJ-UHFFFAOYSA-N_conf_3_2.chk
# TD(NStates=10, Root=1) B3LYP/6-31G** SCRF=(Solvent=water) volume pop=NPA density=current Geom=AllCheck Guess=Read



