%nprocshared=4
%mem=8GB
%Chk=YBRVSVVVWCFQMG-UHFFFAOYSA-N_conf_0_0.chk
# opt=CalcFc B3LYP/6-31G** SCRF=(Solvent=water) scf=xqc 

YBRVSVVVWCFQMG-UHFFFAOYSA-N_conf_0

0 1
N 4.925276569949409 -0.7223439548973919 0.8871877864323939
C 3.66668063763498 -0.3388139682557395 0.4078183435000181
C 3.385327434243059 1.0068357781770954 0.16538610509832466
C 2.174993503956591 1.3915290040486037 -0.42083099700513654
C 1.237663392933267 0.4285952722544114 -0.8140920557834217
C -0.06593118215073866 0.8411500066190961 -1.4593193455565039
C -1.2993275111677762 0.4434978209151775 -0.6804045324560904
C -2.201281910783529 -0.4927058837122439 -1.2003151888215429
C -3.3425740874031935 -0.8560836314678679 -0.47798299941420563
C -3.628907054870047 -0.2631572166192484 0.7530279524548463
N -4.707744722157814 -0.7167526024416877 1.5214401188421924
C -2.699859658140993 0.6247884014339543 1.2978707396196068
C -1.5572246085882002 0.9942170412914477 0.5813149671238689
C 1.549442612330906 -0.9243769329965396 -0.6293427893382316
C 2.7613067879961 -1.301093499795006 -0.04206859414114876
H 5.36910987405359 -0.019984034572784883 1.4700385953825346
H 4.930609275818675 -1.6405847330484216 1.3199995664772555
H 4.108177529145396 1.7726291812340769 0.4330300424753007
H 1.9785691110054255 2.449426192578988 -0.5777746569753732
H -0.09674678175348785 0.41395979455597176 -2.4702922170675645
H -0.09375649650022821 1.9292809494849694 -1.6037359948151648
H -2.0169886497401457 -0.9594660650733597 -2.16501397348796
H -4.008493477296831 -1.609824045174973 -0.8891619821046902
H -5.020173573039089 -0.04879670247328337 2.2188036876626835
H -5.474889110325071 -1.0862901293549487 0.9693264820684637
H -2.855731367172853 1.0395890862622683 2.2899008227235997
H -0.8585127310824543 1.699988632753624 1.024907778261861
H 0.8527851979146813 -1.6968670509573875 -0.9471644533584582
H 2.9882009951903012 -2.3583467107688403 0.06392332817290679


--Link1--
%nprocshared=4
%mem=8GB
%Oldchk=YBRVSVVVWCFQMG-UHFFFAOYSA-N_conf_0_0.chk
%Chk=YBRVSVVVWCFQMG-UHFFFAOYSA-N_conf_0_1.chk
# freq B3LYP/6-31G** SCRF=(Solvent=water) volume NMR pop=NPA density=current Geom=AllCheck Guess=Read


--Link1--
%nprocshared=4
%mem=8GB
%Oldchk=YBRVSVVVWCFQMG-UHFFFAOYSA-N_conf_0_1.chk
%Chk=YBRVSVVVWCFQMG-UHFFFAOYSA-N_conf_0_2.chk
# TD(NStates=10, Root=1) B3LYP/6-31G** SCRF=(Solvent=water) volume pop=NPA density=current Geom=AllCheck Guess=Read



