%nprocshared=4
%mem=8GB
%Chk=OXIKYYJDTWKERT-OCAPTIKFSA-N_conf_0_0.chk
# opt=CalcFc B3LYP/6-31G** SCRF=(Solvent=water) scf=xqc 

OXIKYYJDTWKERT-OCAPTIKFSA-N_conf_0

0 1
N 3.7076066059157724 0.6614844965477938 0.30905012420962846
C 2.8689257951462825 -0.01422043032497339 -0.6761340833629205
C 1.4263689269434203 -0.19079526159165616 -0.17277225572896238
C 0.7512487862414708 1.1614291435887658 0.1359545074019408
C -0.7783884957044301 1.1269931585588728 0.03769558234637571
C -1.3383608705163321 -0.2650694121549579 0.3487522854689772
C -2.873436514763058 -0.28654511363773155 0.46325394991124685
N -3.562058241751917 0.10109313052751318 -0.763318477142518
C -0.811302733829224 -1.3002876665595622 -0.66384927979059
C 0.5955709330461713 -0.9867855302695158 -1.1856917672006353
H 4.665297175544738 0.7047295085756414 -0.03681474780109307
H 3.7377499349770518 0.11137587095883533 1.166431620938568
H 2.8771333584770713 0.5638926802757299 -1.607108108404875
H 3.3073372573895092 -0.9940197413045253 -0.8977965205393517
H 1.4623648187869418 -0.7753705493095842 0.7578849788904086
H 1.1201326739411672 1.9455521544743049 -0.5371481570801084
H 1.0373825681483606 1.4709601304891256 1.149340022839096
H -1.069693528553344 1.4272175307541337 -0.9768955772243053
H -1.1997334196746212 1.8768566246984195 0.7176961451531657
H -0.9567880094462216 -0.5526436207698537 1.3393530335934467
H -3.1878410744627685 0.3840596682837291 1.271434125840817
H -3.1989336746699473 -1.2955522905113237 0.7411394350400474
H -3.3354755186893033 1.0671489688263125 -0.9950294416417403
H -4.568748728558632 0.07839321795073763 -0.6053378968853136
H -0.8051265825950371 -2.2842280090305 -0.17739211032969845
H -1.4801611667936918 -1.3974337800256627 -1.5269228749136923
H 0.5119933888870564 -0.41183259180932247 -2.117475041283246
H 1.0969363365633773 -1.9264022872108362 -1.4471718624603356


--Link1--
%nprocshared=4
%mem=8GB
%Oldchk=OXIKYYJDTWKERT-OCAPTIKFSA-N_conf_0_0.chk
%Chk=OXIKYYJDTWKERT-OCAPTIKFSA-N_conf_0_1.chk
# freq B3LYP/6-31G** SCRF=(Solvent=water) volume NMR pop=NPA density=current Geom=AllCheck Guess=Read


--Link1--
%nprocshared=4
%mem=8GB
%Oldchk=OXIKYYJDTWKERT-OCAPTIKFSA-N_conf_0_1.chk
%Chk=OXIKYYJDTWKERT-OCAPTIKFSA-N_conf_0_2.chk
# TD(NStates=10, Root=1) B3LYP/6-31G** SCRF=(Solvent=water) volume pop=NPA density=current Geom=AllCheck Guess=Read



