%nprocshared=4
%mem=8GB
%Chk=NULAJYZBOLVQPQ-UHFFFAOYSA-N_conf_4_0.chk
# opt=CalcFc B3LYP/6-31G** SCRF=(Solvent=water) scf=xqc 

NULAJYZBOLVQPQ-UHFFFAOYSA-N_conf_4

0 1
N -3.518485246447104 -1.059741762882281 0.9795979819580493
C -3.697165053252406 -0.2892376410180691 -0.26178878912522613
C -2.4983946811078614 0.6430074912736148 -0.5412207988661444
N -1.2650780231068857 -0.14240620905331525 -0.5055653105049863
C -0.015716444663177325 0.5032896936442676 -0.4300123555746624
C 1.1507193861290428 -0.22710690331699482 -0.035013787281471066
C 1.136903790668358 -1.5972696043763728 0.3254150890932391
C 2.2933212503134337 -2.2711522145174814 0.7286506051185296
C 3.504484217910416 -1.5968247541738472 0.7799059664749476
C 3.560388205690421 -0.25307144238561535 0.4168874052843627
C 2.406576055322424 0.4357185781810568 0.004572072029141488
C 2.5010136359725395 1.7781290658052058 -0.3807713723389826
C 1.3797025553951119 2.4677906376248107 -0.8249752097626454
C 0.14141207364173014 1.830569709286517 -0.8632028868861362
H -4.35533310239732 -1.6173736820882487 1.1474599753892232
H -3.4378770209336755 -0.41698459269716187 1.7675024357906737
H -4.616368694058721 0.3026063643886189 -0.19889485186641362
H -3.809761510440922 -0.997356599910801 -1.0902793544421445
H -2.4772197621220142 1.4270404818480051 0.22598928620245776
H -2.628364203669023 1.110102420687116 -1.5235583525957508
H -1.3607651748368743 -0.8692040913865269 0.20658512521661113
H 0.2138056406967059 -2.1693296933867785 0.28115628267327525
H 2.2409288212774072 -3.3229609714231474 0.9964159568291292
H 4.40654265621947 -2.115658565210181 1.0917530349948092
H 4.5213759763199315 0.25580305701496825 0.45101601270108627
H 3.4585864738940675 2.2934346234383987 -0.35879103827670045
H 1.4690955396673524 3.500653778296174 -1.1499377790921803
H -0.7043273620825268 2.3975328263377103 -1.2388953431421712


--Link1--
%nprocshared=4
%mem=8GB
%Oldchk=NULAJYZBOLVQPQ-UHFFFAOYSA-N_conf_4_0.chk
%Chk=NULAJYZBOLVQPQ-UHFFFAOYSA-N_conf_4_1.chk
# freq B3LYP/6-31G** SCRF=(Solvent=water) volume NMR pop=NPA density=current Geom=AllCheck Guess=Read


--Link1--
%nprocshared=4
%mem=8GB
%Oldchk=NULAJYZBOLVQPQ-UHFFFAOYSA-N_conf_4_1.chk
%Chk=NULAJYZBOLVQPQ-UHFFFAOYSA-N_conf_4_2.chk
# TD(NStates=10, Root=1) B3LYP/6-31G** SCRF=(Solvent=water) volume pop=NPA density=current Geom=AllCheck Guess=Read



