%nprocshared=4
%mem=8GB
%Chk=NULAJYZBOLVQPQ-UHFFFAOYSA-N_conf_0_0.chk
# opt=CalcFc B3LYP/6-31G** SCRF=(Solvent=water) scf=xqc 

NULAJYZBOLVQPQ-UHFFFAOYSA-N_conf_0

0 1
N -4.462923481134569 0.5543945165232887 -0.8303820247820847
C -3.509436466404537 0.03650423034898787 0.1528208813492762
C -2.0844664742317516 -0.10114463735658202 -0.4169059820229434
N -1.1828998719442618 -0.6095771977049699 0.629397490734502
C 0.12008014908676 -0.8586380872232212 0.11575268532870729
C 1.1615033304343996 0.11528660129562747 0.14171619913250907
C 1.0272707965016092 1.406665194562229 0.7074082407259888
C 2.083647603821439 2.3213559182423054 0.7137629330847083
C 3.304424303228719 1.9729420736447218 0.15296378753762252
C 3.4671800254169893 0.7128618079383586 -0.4194468625526871
C 2.4140838049691196 -0.21722769987654214 -0.4367759164191223
C 2.599866354232812 -1.4734775829099669 -1.0336367053062714
C 1.56670804704874 -2.405097765979584 -1.0772517547147136
C 0.33447817949344383 -2.094685290040441 -0.5136943667215482
H -4.53410556205845 -0.10071782185974577 -1.6091103962471753
H -5.390241376936199 0.5871200958458469 -0.4072232964264486
H -3.4949634231397355 0.711570598006989 1.0161918045364358
H -3.8586939048237134 -0.9379485963012612 0.5138350882511886
H -1.7359456443259829 0.8758079333370744 -0.7750368059542284
H -2.1084873591105655 -0.7886295025600543 -1.2720110269082243
H -1.1214665793987946 0.056282398003606446 1.3957550887656884
H 0.08702670690653522 1.724233839647692 1.1481887804974678
H 1.947718864472078 3.3046803696778198 1.1562260731518677
H 4.129203566646508 2.6803607065267396 0.15578441003855645
H 4.429953392982603 0.46070693225543263 -0.859228353828235
H 3.5574808079620044 -1.7351430376770713 -1.4788907009235115
H 1.721708167885888 -3.3717667886251905 -1.5479689636859628
H -0.4687039575812518 -2.8267192077420273 -0.5449468845893786


--Link1--
%nprocshared=4
%mem=8GB
%Oldchk=NULAJYZBOLVQPQ-UHFFFAOYSA-N_conf_0_0.chk
%Chk=NULAJYZBOLVQPQ-UHFFFAOYSA-N_conf_0_1.chk
# freq B3LYP/6-31G** SCRF=(Solvent=water) volume NMR pop=NPA density=current Geom=AllCheck Guess=Read


--Link1--
%nprocshared=4
%mem=8GB
%Oldchk=NULAJYZBOLVQPQ-UHFFFAOYSA-N_conf_0_1.chk
%Chk=NULAJYZBOLVQPQ-UHFFFAOYSA-N_conf_0_2.chk
# TD(NStates=10, Root=1) B3LYP/6-31G** SCRF=(Solvent=water) volume pop=NPA density=current Geom=AllCheck Guess=Read



