%nprocshared=2
%mem=4GB
%Chk=KWEWNOOZQVJONF-UHFFFAOYSA-N_conf_0_0.chk
# opt=CalcFc B3LYP/6-31G** SCRF=(Solvent=water) scf=xqc 

KWEWNOOZQVJONF-UHFFFAOYSA-N_conf_0

0 1
N -2.1130130502096613 -0.6596548333032104 0.11060692688837989
C -0.7243285398230579 -0.44863224335328644 -0.07996347481671245
C 0.1679301245026532 -1.5227994889154464 0.010837633282101905
C 1.5434790220546164 -1.2942587729287538 -0.034537884532278566
C 2.0193882547616515 0.007380498947129344 -0.14434626603452966
F 3.340906403928017 0.2202627647070434 -0.20219797079815552
C 1.1496244669330313 1.090948333591272 -0.1913222821280976
C -0.2257212554877443 0.8740500557622393 -0.11011588481617778
N -1.1218351685800978 1.9483886276035383 -0.26009851359060343
H -2.389212525189276 -1.5975822575000924 -0.16818336685097063
H -2.3478235726552317 -0.5159082289360207 1.0908142044924107
H -0.1982812825081063 -2.5404546654257043 0.10908904643805473
H 2.2457121554120802 -2.120125739752186 0.014010649966938186
H 1.552878517925677 2.091880476381854 -0.29568075977131936
H -0.8284352969655504 2.8098655630514173 0.18366441994467603
H -2.071268254099046 1.6566399100701767 -0.03257647767374063


--Link1--
%nprocshared=2
%mem=4GB
%Oldchk=KWEWNOOZQVJONF-UHFFFAOYSA-N_conf_0_0.chk
%Chk=KWEWNOOZQVJONF-UHFFFAOYSA-N_conf_0_1.chk
# freq B3LYP/6-31G** SCRF=(Solvent=water) volume NMR pop=NPA density=current Geom=AllCheck Guess=Read


--Link1--
%nprocshared=2
%mem=4GB
%Oldchk=KWEWNOOZQVJONF-UHFFFAOYSA-N_conf_0_1.chk
%Chk=KWEWNOOZQVJONF-UHFFFAOYSA-N_conf_0_2.chk
# TD(NStates=10, Root=1) B3LYP/6-31G** SCRF=(Solvent=water) volume pop=NPA density=current Geom=AllCheck Guess=Read



