%nprocshared=3
%mem=6GB
%Chk=FDLQZKYLHJJBHD-UHFFFAOYSA-N_conf_1_0.chk
# opt=CalcFc B3LYP/6-31G** SCRF=(Solvent=water) scf=xqc 

FDLQZKYLHJJBHD-UHFFFAOYSA-N_conf_1

0 1
N 3.4311482789259156 -0.29040286448955166 0.4771321303445361
C 2.223030811502596 -0.053243731908445356 1.257744923674433
C 1.0510531091012343 0.2844478693744487 0.3719165334263113
C 1.0530668685350666 1.462867878198439 -0.3872744986146793
C -0.031508773694820344 1.784773543343839 -1.2026018315021525
C -1.1313549214888523 0.9304969646770103 -1.2712785057700766
C -1.1532472585435252 -0.25934275277143637 -0.5314127538943705
C -2.351765029328101 -1.1709935536017506 -0.5866796310503061
N -3.33648512706368 -0.8112999046914405 0.4269792288397203
C -0.05964191125890573 -0.5695036638199356 0.29320972792924943
H 4.164081149681068 -0.636008358788101 1.092597701317593
H 3.245065521641215 -1.0317022259197928 -0.19691104817585456
H 2.0032220391910407 -0.9433884056366467 1.8582940468910436
H 2.39179083156959 0.7703522747785201 1.9607278133094883
H 1.9116457510673883 2.1306181483185793 -0.34690686772387475
H -0.016552499117883812 2.7016098921745355 -1.7859975490405255
H -1.9716049988325357 1.1956872879047558 -1.9090956498830578
H -2.0397238132445192 -2.211663488155538 -0.4418304991432921
H -2.813626179692741 -1.1258520178008284 -1.5796680873902968
H -3.607619810019322 0.1608799051214469 0.2831760767758315
H -2.884351909506564 -0.8308234033395249 1.3401436718462085
H -0.0766221294240027 -1.487509392968698 0.8777350678340465


--Link1--
%nprocshared=3
%mem=6GB
%Oldchk=FDLQZKYLHJJBHD-UHFFFAOYSA-N_conf_1_0.chk
%Chk=FDLQZKYLHJJBHD-UHFFFAOYSA-N_conf_1_1.chk
# freq B3LYP/6-31G** SCRF=(Solvent=water) volume NMR pop=NPA density=current Geom=AllCheck Guess=Read


--Link1--
%nprocshared=3
%mem=6GB
%Oldchk=FDLQZKYLHJJBHD-UHFFFAOYSA-N_conf_1_1.chk
%Chk=FDLQZKYLHJJBHD-UHFFFAOYSA-N_conf_1_2.chk
# TD(NStates=10, Root=1) B3LYP/6-31G** SCRF=(Solvent=water) volume pop=NPA density=current Geom=AllCheck Guess=Read



