%nprocshared=4
%mem=8GB
%Chk=KWYHDKDOAIKMQN-UHFFFAOYSA-N_conf_3_0.chk
# opt=CalcFc B3LYP/6-31G** SCRF=(Solvent=water) scf=xqc 

KWYHDKDOAIKMQN-UHFFFAOYSA-N_conf_3

0 1
C 2.074635816607895 -1.6216204286488876 0.31053911715630605
N 1.9501528638817736 -0.16483673533477572 0.23917917669959546
C 2.8152387013014994 0.45527609326520163 1.2465139419951856
C 0.5526566607949448 0.2797021878286662 0.43699754024190973
C -0.3886374189394431 -0.09514817178565585 -0.734912707972063
N -1.7374795710932909 0.5035033278285707 -0.6254582894725333
C -2.506588099904065 -0.08165435351695312 0.47402751179745434
C -2.4630663521071696 0.3252879348160749 -1.8861723327700135
H 1.710184046145752 -2.022191707456741 1.263372118590974
H 3.121614754650089 -1.9236756342331456 0.19120564837810738
H 1.5275111366425937 -2.1070193527688095 -0.5033328926930045
H 3.8604844624718706 0.16741367195872323 1.0868936188655662
H 2.7788912968994355 1.5475546306782775 1.1671782793252645
H 2.530777818855502 0.17253175556374223 2.266618747229876
H 0.5415676374861753 1.374810901265463 0.5208316766575805
H 0.1672446119265012 -0.11747671510737574 1.3839666225830665
H -0.4725645344683889 -1.1846783682094313 -0.8293600988047096
H 0.0836886612501278 0.2707848746369365 -1.6565505768603694
H -3.510724131662856 0.3560934303786045 0.5155972650955178
H -2.044065585723703 0.13565809333931803 1.4415973781535354
H -2.6115726366241874 -1.1679764496707636 0.37375895941023324
H -1.9288956778005812 0.8099722674092286 -2.7110534761326934
H -2.601807861860085 -0.732543720680104 -2.1376006089806077
H -3.449246598730375 0.8002532550608431 -1.8338366184941655


--Link1--
%nprocshared=4
%mem=8GB
%Oldchk=KWYHDKDOAIKMQN-UHFFFAOYSA-N_conf_3_0.chk
%Chk=KWYHDKDOAIKMQN-UHFFFAOYSA-N_conf_3_1.chk
# freq B3LYP/6-31G** SCRF=(Solvent=water) volume NMR pop=NPA density=current Geom=AllCheck Guess=Read


--Link1--
%nprocshared=4
%mem=8GB
%Oldchk=KWYHDKDOAIKMQN-UHFFFAOYSA-N_conf_3_1.chk
%Chk=KWYHDKDOAIKMQN-UHFFFAOYSA-N_conf_3_2.chk
# TD(NStates=10, Root=1) B3LYP/6-31G** SCRF=(Solvent=water) volume pop=NPA density=current Geom=AllCheck Guess=Read



