%nprocshared=5
%mem=10GB
%Chk=PWGJDPKCLMLPJW-UHFFFAOYSA-N_conf_0_0.chk
# opt=CalcFc B3LYP/6-31G** SCRF=(Solvent=water) scf=xqc 

PWGJDPKCLMLPJW-UHFFFAOYSA-N_conf_0

0 1
N -3.747216228058244 0.7253762732911958 1.2803165183085556
C -3.812536803507946 -0.3238100567990366 0.27015683245425715
C -2.4670722837054693 -1.0137736334926957 0.031774717593108084
C -1.4021071564307959 -0.08596089318781254 -0.5620453643881063
C -0.11356144639500634 -0.8526705607322076 -0.8714083841796485
C 0.9529533919080401 0.0030542606204126245 -1.5615162131510396
C 1.440805213599774 1.222931643433076 -0.7730188806201947
C 1.993807978207997 0.9327959094790125 0.6260522479626547
C 3.2086243361567197 0.005850640919533869 0.6139046232263698
N 3.7360974896795645 -0.1482113198450099 1.965273761002943
H -3.132268441884486 1.4741235918395634 0.9656315761924863
H -3.328840055000597 0.3558779645739623 2.1331008464675425
H -4.190484022842556 0.10105800737673114 -0.6661509692174413
H -4.542611089354621 -1.0719160810645658 0.5979196196915174
H -2.6325216153243205 -1.8550035603262882 -0.6529460614022308
H -2.099043221061327 -1.443246192870121 0.9721315606925407
H -1.1871926974468043 0.7238922369794857 0.14254036708023143
H -1.7860189094727603 0.37209972452030293 -1.481378563396018
H -0.3492841627519583 -1.696111425742242 -1.5326677639920852
H 0.2903856877922569 -1.2886877273857698 0.049383847741609956
H 1.8091125536175532 -0.6369230029502199 -1.8059284394259834
H 0.5570903288604694 0.35265826801450545 -2.5235363158526085
H 0.6225142020717422 1.947070926967696 -0.6816680013409515
H 2.218428538155704 1.7242620853571404 -1.363295587207427
H 2.276046297506123 1.8912809044732046 1.0813833244657305
H 1.2044979897662285 0.5133122792105281 1.2611712306725058
H 2.9407589198779704 -0.9814331707702497 0.22489051305683977
H 3.991803385734941 0.4198224891797954 -0.029896721310953278
H 4.520180866270661 -0.7992300717961619 1.9498737500354963
H 3.0276509540314316 -0.5684895092734954 2.565375955189436


--Link1--
%nprocshared=5
%mem=10GB
%Oldchk=PWGJDPKCLMLPJW-UHFFFAOYSA-N_conf_0_0.chk
%Chk=PWGJDPKCLMLPJW-UHFFFAOYSA-N_conf_0_1.chk
# freq B3LYP/6-31G** SCRF=(Solvent=water) volume NMR pop=NPA density=current Geom=AllCheck Guess=Read


--Link1--
%nprocshared=5
%mem=10GB
%Oldchk=PWGJDPKCLMLPJW-UHFFFAOYSA-N_conf_0_1.chk
%Chk=PWGJDPKCLMLPJW-UHFFFAOYSA-N_conf_0_2.chk
# TD(NStates=10, Root=1) B3LYP/6-31G** SCRF=(Solvent=water) volume pop=NPA density=current Geom=AllCheck Guess=Read



