%nprocshared=5
%mem=10GB
%Chk=PWGJDPKCLMLPJW-UHFFFAOYSA-N_conf_4_0.chk
# opt=CalcFc B3LYP/6-31G** SCRF=(Solvent=water) scf=xqc 

PWGJDPKCLMLPJW-UHFFFAOYSA-N_conf_4

0 1
N -4.961586548161008 -0.2375219440000228 1.0615168642698272
C -3.51031857699821 -0.29349244705460087 0.9229190084260671
C -3.084820324366875 0.3081997565712704 -0.41608571873649586
C -1.5763735808660992 0.21134201194378618 -0.670424373191291
C -0.7433040796051458 1.043216004641521 0.3083370791950021
C 0.7364665617248367 1.1314597601047984 -0.07913090537407491
C 1.460944825551776 -0.21522750165220705 -0.020343957320637603
C 2.956223614232563 -0.05322233719779532 -0.30648896289788846
C 3.6779856594413887 -1.3993885661110983 -0.25126248537364737
N 5.102390986325162 -1.24267779543134 -0.5238249861981306
H -5.235105540913313 -0.6867457070866423 1.9345399445987754
H -5.399203959621022 -0.7757424540834249 0.31470706560325257
H -3.0617633909176374 0.2588931587120356 1.754028970282354
H -3.178767338252551 -1.3351106039569547 0.9934196179781852
H -3.5997883187559605 -0.21750421793797736 -1.2306938684075837
H -3.3984810715466627 1.3583138142521318 -0.47187995546408457
H -1.379730904296868 0.5566527457180155 -1.6928800091014096
H -1.2730974520795149 -0.8408299983064027 -0.6259970528253579
H -1.1471529623286956 2.062352755724955 0.347742688331841
H -0.8240869775164082 0.6296886167413723 1.3199861215525848
H 0.8284181783874542 1.5581936989020007 -1.08533563522416
H 1.2275162518909823 1.8330061229434673 0.6067527634201499
H 1.3237009672523916 -0.6637620933008597 0.9709444398028
H 1.0293228140890816 -0.9060853658910215 -0.7532057822773714
H 3.0911455543544495 0.4007415872634117 -1.2963534056561474
H 3.396365738445044 0.6341706754534705 0.42688932233112203
H 3.250108402785994 -2.0898480247902698 -0.9861116810767779
H 3.5538788542249127 -1.8561622838334153 0.7365485932405809
H 5.509654429001033 -0.5947984972390719 0.14982069933810324
H 5.229458188518817 -0.8098963326214486 -1.4381343992456133


--Link1--
%nprocshared=5
%mem=10GB
%Oldchk=PWGJDPKCLMLPJW-UHFFFAOYSA-N_conf_4_0.chk
%Chk=PWGJDPKCLMLPJW-UHFFFAOYSA-N_conf_4_1.chk
# freq B3LYP/6-31G** SCRF=(Solvent=water) volume NMR pop=NPA density=current Geom=AllCheck Guess=Read


--Link1--
%nprocshared=5
%mem=10GB
%Oldchk=PWGJDPKCLMLPJW-UHFFFAOYSA-N_conf_4_1.chk
%Chk=PWGJDPKCLMLPJW-UHFFFAOYSA-N_conf_4_2.chk
# TD(NStates=10, Root=1) B3LYP/6-31G** SCRF=(Solvent=water) volume pop=NPA density=current Geom=AllCheck Guess=Read



