%nprocshared=5
%mem=10GB
%Chk=PWGJDPKCLMLPJW-UHFFFAOYSA-N_conf_2_0.chk
# opt=CalcFc B3LYP/6-31G** SCRF=(Solvent=water) scf=xqc 

PWGJDPKCLMLPJW-UHFFFAOYSA-N_conf_2

0 1
N -4.303588400986232 1.3212975423009201 0.9540230467092721
C -4.1628641049934325 0.5266353877928189 -0.2601612483963138
C -3.0196571440759876 -0.48565619700480817 -0.16354830456644714
C -1.635589093454915 0.1624456471505005 -0.06293386201093598
C -0.5279434886305866 -0.8939206016244995 -0.07377201265904514
C 0.8571373129657994 -0.24965378435004937 0.033085420362507514
C 1.9619824972064577 -1.304384842630296 0.0009823577462284724
C 3.363559871879962 -0.7852980281028482 0.34310293336118675
C 3.955049817523861 0.22655929648462603 -0.6423059888092715
N 3.58798698783113 1.6070929298190253 -0.3492767373464939
H -3.480925197953629 1.9085411581390994 1.081248791018736
H -5.090298403922218 1.9608427106973654 0.8476314169598438
H -4.008822595532003 1.190693973649898 -1.1178649469976132
H -5.100015788917007 -0.014181099190431062 -0.4313451065172363
H -3.181692606122034 -1.1452833492256809 0.6983845277975874
H -3.0523996903646706 -1.1232239530623322 -1.0559735221547433
H -1.4918875252421306 0.8529794814889957 -0.9027339728672514
H -1.5606400325526533 0.7508565146947436 0.8586354894093571
H -0.5886359515518278 -1.4816263398971954 -0.9978858639309963
H -0.6762099506879636 -1.5883883054025076 0.7621369827919761
H 0.9212064269068069 0.32929632330451253 0.9618365484454582
H 0.9836983743104248 0.44426769232867813 -0.8044393544317832
H 1.9822412513063739 -1.7798906613728087 -0.9875218686158328
H 1.7189265065988018 -2.09714207112523 0.7200832829914421
H 4.032013633805452 -1.6562882741298475 0.36204541073700985
H 3.3726806523475403 -0.38037799588694005 1.362894104827369
H 5.0481140531300275 0.16422813092147892 -0.5937900890764262
H 3.670618696473604 -0.021086090186632163 -1.6705058843526013
H 2.5801082432059896 1.728167921765535 -0.4036350594982465
H 3.8458456494945756 1.832496882653958 0.6108695897799097


--Link1--
%nprocshared=5
%mem=10GB
%Oldchk=PWGJDPKCLMLPJW-UHFFFAOYSA-N_conf_2_0.chk
%Chk=PWGJDPKCLMLPJW-UHFFFAOYSA-N_conf_2_1.chk
# freq B3LYP/6-31G** SCRF=(Solvent=water) volume NMR pop=NPA density=current Geom=AllCheck Guess=Read


--Link1--
%nprocshared=5
%mem=10GB
%Oldchk=PWGJDPKCLMLPJW-UHFFFAOYSA-N_conf_2_1.chk
%Chk=PWGJDPKCLMLPJW-UHFFFAOYSA-N_conf_2_2.chk
# TD(NStates=10, Root=1) B3LYP/6-31G** SCRF=(Solvent=water) volume pop=NPA density=current Geom=AllCheck Guess=Read



