%nprocshared=8
%mem=16GB
%Chk=ZWRBLCDTKAWRHT-UHFFFAOYSA-N_conf_0_0.chk
# opt=CalcFc B3LYP/6-31G** SCRF=(Solvent=water) scf=xqc 

ZWRBLCDTKAWRHT-UHFFFAOYSA-N_conf_0

0 1
C -2.169558229913396 1.8453760904871244 2.049097873948373
Si -2.2612208281851967 0.4674697404784687 0.7735623796219376
C -2.944761629861091 -1.075369023614992 1.5980594925230123
C -3.4356133467510204 1.0003774414020055 -0.6377366329886729
C -4.946842101875835 0.8374308831040379 -0.42846950597963507
C -5.591887066281997 1.7282232602639398 0.6380393648829104
N -5.387824959294154 3.1500170272671046 0.3972955339635578
O -0.7357848607139217 0.19072697230732677 0.1522816219055091
Si 0.16462102734359865 -0.9390973132429685 -0.676875058825813
C -0.7141791963045357 -1.4733059500802819 -2.2476788381382713
C 0.4311412978459984 -2.466928333475476 0.38323171411948476
O 1.6222786382655339 -0.21959159821462682 -1.0498035409929576
Si 3.1755968857197607 -0.5772029932094638 -1.5378728472626824
C 3.18358281354951 -1.947686473197208 -2.828649707789774
C 4.227984114033193 -1.1702204519296233 -0.054924387375693016
C 4.559431545274647 -0.1397661237827058 1.0319152762877926
C 3.368193191353299 0.22272814109711467 1.9241254503746925
N 3.7866959768633066 1.109608155420257 3.0070080528946184
C 3.996556270663835 0.9387771930408854 -2.2855754151989243
H -1.4233715605268522 1.6047069617791987 2.8127950619298048
H -3.1292641120039764 1.991938737519623 2.550237903445864
H -1.8804575765646347 2.7878447358589664 1.5747122354120582
H -2.2571629186142066 -1.4360220469274372 2.3695748353460493
H -3.9091791359581185 -0.8696232792459375 2.071470539856918
H -3.087358545301931 -1.8744888868864118 0.8643936253154826
H -3.192896387175805 2.03265747212188 -0.9139352020985596
H -3.1611642065823973 0.3849531193731743 -1.5032270511114572
H -5.175608701585471 -0.20924050851257642 -0.18969709146604108
H -5.440604697430628 1.0402175717277162 -1.3887649756260114
H -6.670632827121237 1.5340689651878112 0.6483575635777243
H -5.226763118176976 1.4703873528406937 1.6364421058704337
H -5.665336425663865 3.3820957941848673 -0.5561409672519126
H -4.397831205308454 3.382333299753964 0.46747852372457827
H -0.8840361243328465 -0.6150863901147589 -2.90465547888107
H -1.6829409869012342 -1.9249172969118364 -2.0152921349065176
H -0.11721641703931014 -2.2097060201389946 -2.7933999438047303
H 0.9313498817969325 -2.2034676656439145 1.319815427440126
H -0.5239666917222917 -2.9411088811028807 0.6263940489766286
H 1.050110756773323 -3.2001674977131946 -0.14219075471206638
H 4.205750939938814 -2.1632246179496244 -3.153129142033428
H 2.7528397785808445 -2.866540226972383 -2.420153386839286
H 2.5993496695060143 -1.6526729807521723 -3.7052226285114696
H 3.734202185333588 -2.0404876216251386 0.39253807672698066
H 5.173224909833229 -1.5292693662169408 -0.4798487606942008
H 5.350276924141169 -0.568404482711114 1.661786779645515
H 4.98012444157639 0.7683893997735987 0.5823759104332329
H 2.586236418992927 0.7276286672713319 1.3508930687845573
H 2.929027723687321 -0.6812517046620639 2.3595382668319456
H 4.166806049601401 1.969216621771283 2.612695480440377
H 4.546564702525678 0.6780402867158963 3.530721021828759
H 3.465421756341315 1.2560179812494636 -3.1877188206742737
H 5.034366502508053 0.7222630807495657 -2.555925364662981
H 3.991729455141152 1.7713527820879835 -1.575810490114528


--Link1--
%nprocshared=8
%mem=16GB
%Oldchk=ZWRBLCDTKAWRHT-UHFFFAOYSA-N_conf_0_0.chk
%Chk=ZWRBLCDTKAWRHT-UHFFFAOYSA-N_conf_0_1.chk
# freq B3LYP/6-31G** SCRF=(Solvent=water) volume NMR pop=NPA density=current Geom=AllCheck Guess=Read


--Link1--
%nprocshared=8
%mem=16GB
%Oldchk=ZWRBLCDTKAWRHT-UHFFFAOYSA-N_conf_0_1.chk
%Chk=ZWRBLCDTKAWRHT-UHFFFAOYSA-N_conf_0_2.chk
# TD(NStates=10, Root=1) B3LYP/6-31G** SCRF=(Solvent=water) volume pop=NPA density=current Geom=AllCheck Guess=Read



