%nprocshared=8
%mem=16GB
%Chk=ZWRBLCDTKAWRHT-UHFFFAOYSA-N_conf_3_0.chk
# opt=CalcFc B3LYP/6-31G** SCRF=(Solvent=water) scf=xqc 

ZWRBLCDTKAWRHT-UHFFFAOYSA-N_conf_3

0 1
C 3.670664409124262 -1.805372560507099 0.1467716956252967
Si 2.7377450297958243 -0.22023908768518954 -0.22857524744416266
C 3.19818929290057 0.36591291888969024 -1.9527977158763423
C 3.243237599393432 1.1196643900074876 1.040698618279379
C 4.702060794334204 1.167990024263387 1.5119389139094994
C 5.747351626462202 1.5625209912398168 0.46413390931013554
N 5.498687517797354 2.8682823174834855 -0.13073535502081265
O 1.0896158571438483 -0.46046646451985124 -0.11520768021140167
Si -0.16677759836428435 -1.3467647828352065 -0.7555952424988296
C 0.11966305633017572 -3.1838248985908613 -0.4926764800064241
C -0.31627747990283755 -1.0462862517908955 -2.6030165382437884
O -1.5535446570582323 -0.8523853704864329 0.024670035927996117
Si -3.175476973410802 -1.203929126542359 0.17807926861283344
C -3.4305137903761382 -2.8186091884885376 1.1074554081310828
C -4.045422054834911 0.18271120237908248 1.1760668746526675
C -3.9551189960557736 1.5772626714119946 0.5468339469883619
C -4.636256220729578 2.6223752778577745 1.429724725007991
N -4.559271106347354 3.9389850753761735 0.8085497759700819
C -4.013888504542012 -1.33921650463342 -1.4975095645378698
H 4.751541675690475 -1.6456331299524936 0.08918670371049307
H 3.407831542717528 -2.587614051958952 -0.5710250356576262
H 3.430106261500341 -2.1663220203704547 1.1511134470507332
H 4.277638029716182 0.5058012942754941 -2.050975158254199
H 2.7066728393209285 1.3168830043891446 -2.1786431760867537
H 2.8871657807076376 -0.36658661836194795 -2.703314939186088
H 2.6204803332188846 0.9338592194438159 1.9250277984918636
H 2.9293330552916994 2.094584133630815 0.651763823419384
H 4.985209478085651 0.1960133137877046 1.9348236069802618
H 4.760865743923435 1.8845498218539332 2.3421890380256163
H 6.732587600697322 1.586575931577545 0.9439134852166158
H 5.812479337567307 0.8084877449894613 -0.32522774139128563
H 4.610687004699437 2.8650684083646074 -0.6300697483387689
H 5.399121490339049 3.565690930777115 0.6066460047338574
H -0.7159753105064035 -3.766789110281555 -0.8911337611483903
H 0.21878665988458437 -3.4099410515459976 0.5730915688937612
H 1.0320765698464727 -3.510513431465576 -0.9997572388645887
H -1.1687133682192128 -1.5926155730162928 -3.0166739837876073
H 0.5848224171088321 -1.3808477068246816 -3.1251033151421295
H -0.4581585992042707 0.01859732733969897 -2.80949007027404
H -4.497340130120856 -3.018732419955516 1.2437519760243607
H -2.960507078112692 -2.7721416876033733 2.094208340796443
H -2.9927673063004776 -3.6556335627370387 0.5562610964994933
H -3.594171118793714 0.1970438563595634 2.174850231987564
H -5.096738462853245 -0.10351418354306621 1.2962834314364367
H -4.4255067637987295 1.5679586423129985 -0.44520860707844573
H -2.9029860559587912 1.8527888517493165 0.39620102431791154
H -4.149124539144153 2.661023859143758 2.4098597697947084
H -5.687157973453858 2.3581714891081633 1.5895927974871173
H -5.037937290351751 3.9239217994627777 -0.09073556996879396
H -5.056039786998175 4.614877887020246 1.386788487884334
H -3.61268061830079 -2.1857672982810374 -2.062535846115391
H -5.091027147250563 -1.4879087310238095 -1.3777972631107382
H -3.8552420726070444 -0.42994757149312357 -2.084278271384817


--Link1--
%nprocshared=8
%mem=16GB
%Oldchk=ZWRBLCDTKAWRHT-UHFFFAOYSA-N_conf_3_0.chk
%Chk=ZWRBLCDTKAWRHT-UHFFFAOYSA-N_conf_3_1.chk
# freq B3LYP/6-31G** SCRF=(Solvent=water) volume NMR pop=NPA density=current Geom=AllCheck Guess=Read


--Link1--
%nprocshared=8
%mem=16GB
%Oldchk=ZWRBLCDTKAWRHT-UHFFFAOYSA-N_conf_3_1.chk
%Chk=ZWRBLCDTKAWRHT-UHFFFAOYSA-N_conf_3_2.chk
# TD(NStates=10, Root=1) B3LYP/6-31G** SCRF=(Solvent=water) volume pop=NPA density=current Geom=AllCheck Guess=Read



