%nprocshared=8
%mem=16GB
%Chk=ZWRBLCDTKAWRHT-UHFFFAOYSA-N_conf_1_0.chk
# opt=CalcFc B3LYP/6-31G** SCRF=(Solvent=water) scf=xqc 

ZWRBLCDTKAWRHT-UHFFFAOYSA-N_conf_1

0 1
C -3.494405347909091 -2.000664653930082 -1.1062025765292567
Si -2.9775530921018682 -1.0383705623461639 0.4214409573409127
C -3.7171568466002434 -1.8643273771879996 1.937017107814873
C -3.7141218376570495 0.7283351227104946 0.29312026987800976
C -3.0708484646442615 1.6046019922985655 -0.7878368383073653
C -3.698548297576566 2.9980979803732755 -0.8132256506321801
N -3.0685286070100317 3.8381153706486706 -1.8260356841387835
O -1.3199380513604206 -0.933814609468004 0.5336381444779387
Si 0.05288609422905618 -1.8351708584500264 0.799019557753056
C -0.013525660257084954 -3.4566049189126185 -0.14428637895020713
C 0.22152376209163158 -2.2353888293509883 2.624971265138456
O 1.3334633091139598 -0.914848974222175 0.26878732081744805
Si 2.9898863824137454 -0.771412239432674 0.3494487963531238
C 3.8400012869238696 -2.37909755101424 -0.12182389466853512
C 3.571402200339512 0.5819405807802784 -0.8795647657615959
C 2.870142200682801 1.934855881494698 -0.7123092856379323
C 3.364340366690984 2.94250733729288 -1.7493556530033414
N 2.676338683886121 4.217290155188001 -1.584841861073203
C 3.546162746076331 -0.27723139794911206 2.073754585109171
H -3.149828846561576 -3.037053621630653 -1.0454927704847146
H -4.5837298982351165 -2.007875652821198 -1.2065961736063284
H -3.069436643447966 -1.55086242645193 -2.0082449434733043
H -3.4424125692223297 -1.3194789234078093 2.8449842140906285
H -4.808712081956798 -1.8889900412783762 1.86850074983269
H -3.356790079563711 -2.892874558344861 2.031618955319837
H -4.789980999314835 0.6307291792912292 0.1080474511019981
H -3.591893617031344 1.2044138243947002 1.2729968674757492
H -3.186580784836234 1.1300761227943499 -1.7709959191522977
H -1.9918814472300423 1.6911381218126722 -0.6029432999778411
H -3.592732702893746 3.4811672849301223 0.16409796956661352
H -4.770146400545722 2.926042399065954 -1.0279888970467763
H -3.121748015996779 3.375817795855486 -2.7329881199909916
H -2.0713442296521083 3.919244527581156 -1.6217927451768377
H -0.8585873170116447 -4.065712445075256 0.18984249981168003
H 0.9036363237518124 -4.032223542413148 0.011504536718312969
H -0.124644072308236 -3.2737414317495794 -1.2171654636507059
H -0.6382228284988106 -2.8145834636650457 2.9746189346290564
H 1.1259159691602936 -2.8218491791136913 2.8119441030893952
H 0.2789851474783139 -1.3171034030122888 3.2168806549373072
H 4.927239127673862 -2.259005087189053 -0.1057317614571539
H 3.5436041930920625 -2.690554922166573 -1.1277925175186834
H 3.573135362222667 -3.1769299085055307 0.5775170105952073
H 4.653986337874446 0.7025294225113118 -0.7576174256211672
H 3.3963084273445143 0.1990469878952344 -1.8917386822133333
H 1.784184301181827 1.8072971562326996 -0.8136554443025775
H 3.05016426668708 2.325112634558188 0.29792569064484564
H 4.443820361768274 3.096066102910879 -1.6432792382629415
H 3.178227721445807 2.5649699816219274 -2.760464495947205
H 2.8578772236977934 4.588792788003262 -0.6533145903944786
H 3.0575204022068756 4.895265309746456 -2.2432220114369117
H 3.0592985322997803 0.6512817720795566 2.3857538255373822
H 3.29437971439916 -1.0560887343216239 2.799346285122227
H 4.628868294690431 -0.12287651866192341 2.099729335260615


--Link1--
%nprocshared=8
%mem=16GB
%Oldchk=ZWRBLCDTKAWRHT-UHFFFAOYSA-N_conf_1_0.chk
%Chk=ZWRBLCDTKAWRHT-UHFFFAOYSA-N_conf_1_1.chk
# freq B3LYP/6-31G** SCRF=(Solvent=water) volume NMR pop=NPA density=current Geom=AllCheck Guess=Read


--Link1--
%nprocshared=8
%mem=16GB
%Oldchk=ZWRBLCDTKAWRHT-UHFFFAOYSA-N_conf_1_1.chk
%Chk=ZWRBLCDTKAWRHT-UHFFFAOYSA-N_conf_1_2.chk
# TD(NStates=10, Root=1) B3LYP/6-31G** SCRF=(Solvent=water) volume pop=NPA density=current Geom=AllCheck Guess=Read



