%nprocshared=8
%mem=16GB
%Chk=ZWRBLCDTKAWRHT-UHFFFAOYSA-N_conf_4_0.chk
# opt=CalcFc B3LYP/6-31G** SCRF=(Solvent=water) scf=xqc 

ZWRBLCDTKAWRHT-UHFFFAOYSA-N_conf_4

0 1
C 4.070682051706072 2.269878649274269 0.09297990085131043
Si 3.3263146087036297 1.070782781430443 -1.147466880703903
C 3.532744609429814 1.8001209710139143 -2.8686058281265865
C 4.323997997339894 -0.565994307566215 -1.0830506358378902
C 3.831678653221865 -1.63993781682019 -0.10474111718987321
C 4.064426107670832 -1.2869580380112444 1.3662849929193548
N 3.6656989302819563 -2.39041051329644 2.235193730605005
O 1.7243221975649319 0.7588506645432904 -0.8121457712664107
Si 0.2565433391224352 1.5057306640250876 -0.5639450515084218
C 0.3559226105140746 2.6890625462535875 0.8898351006019394
C -0.24180101196216686 2.494212270971934 -2.0806161193796897
O -0.8534987674495628 0.29785781363970026 -0.26898431681354873
Si -2.4139474203439377 0.04205691839708194 0.2717714757908463
C -2.568426254930482 0.4884913337111914 2.088069144217998
C -2.8394401561508857 -1.8087068609290655 0.03791009058263582
C -3.9620781618653274 -2.4133014310504333 0.8882011342179078
C -5.364417596874626 -1.9772627525705877 0.46086065742038473
N -6.370001722046283 -2.6799336578864037 1.2495349972216385
C -3.6252408590498386 1.0849071213176527 -0.7169867866555905
H 5.144422801572833 2.38630975288981 -0.08218264479534154
H 3.9267667700015965 1.9159733662757041 1.1174962576131722
H 3.603348019518266 3.254972414195674 0.003884441383702826
H 4.5921811173839 1.9479792730350634 -3.098497971033804
H 3.1068064276692966 1.1315312700852518 -3.6223820621217926
H 3.0278966515938897 2.7674847356487438 -2.9418156600648824
H 4.2805798065337735 -0.9876594452222563 -2.0945612813388856
H 5.375087831047384 -0.3242219624093555 -0.8871905682380458
H 4.3695775364100555 -2.569591041765893 -0.3336650188047953
H 2.7674335130342174 -1.8469327924168255 -0.2757358111054379
H 3.4884789526649715 -0.4029384212080579 1.6534188265807108
H 5.122276656572721 -1.0636859571345971 1.5405479274680458
H 4.17365313368488 -3.2330690082355686 1.9691229512039838
H 2.679987361049669 -2.601096950095081 2.0772348346577205
H 1.0924005523906573 3.4752736261322337 0.700977181922406
H 0.6476248816366403 2.1577388710627705 1.8005352378513824
H -0.6114930520756683 3.1679690792951893 1.0670051582077296
H -1.2185060354002573 2.9642387272524573 -1.935058208188765
H 0.48747748538242386 3.2830651952144083 -2.2851027377532613
H -0.3015434452401298 1.845210099944102 -2.9594551945352867
H -1.8858419159870161 -0.11536856748510581 2.692781587576258
H -2.3265901057083593 1.5428958920507174 2.249854685473337
H -3.588071229408402 0.31781983981670237 2.4456869797679595
H -3.038512933844117 -1.981482081649304 -1.0262067037172702
H -1.9161937092834083 -2.3526730095488384 0.27345534378392045
H -3.8040352679184832 -2.184388345829368 1.9496255852332718
H -3.8928404840722513 -3.5058071419053527 0.7947738336755231
H -5.522161468405972 -2.188622461988804 -0.6023069100571434
H -5.500191616383964 -0.9045957270335043 0.6170153697630992
H -6.27759064687194 -3.6852933822397502 1.1076010029041103
H -7.299438224698147 -2.4299169185338494 0.9140862380249227
H -3.607814099332081 0.7968202932797066 -1.7721401483326478
H -3.3622789736978596 2.1448076812607164 -0.6471600365763088
H -4.646375444699824 0.970472581940223 -0.3457412033751385


--Link1--
%nprocshared=8
%mem=16GB
%Oldchk=ZWRBLCDTKAWRHT-UHFFFAOYSA-N_conf_4_0.chk
%Chk=ZWRBLCDTKAWRHT-UHFFFAOYSA-N_conf_4_1.chk
# freq B3LYP/6-31G** SCRF=(Solvent=water) volume NMR pop=NPA density=current Geom=AllCheck Guess=Read


--Link1--
%nprocshared=8
%mem=16GB
%Oldchk=ZWRBLCDTKAWRHT-UHFFFAOYSA-N_conf_4_1.chk
%Chk=ZWRBLCDTKAWRHT-UHFFFAOYSA-N_conf_4_2.chk
# TD(NStates=10, Root=1) B3LYP/6-31G** SCRF=(Solvent=water) volume pop=NPA density=current Geom=AllCheck Guess=Read



