%nprocshared=3
%mem=6GB
%Chk=APQPRKLAWCIJEK-UHFFFAOYSA-N_conf_1_0.chk
# opt=CalcFc B3LYP/6-31G** SCRF=(Solvent=water) scf=xqc 

APQPRKLAWCIJEK-UHFFFAOYSA-N_conf_1

0 1
N -3.475873705234321 0.22267502970572367 0.906246537282215
C -3.2421376392686474 -0.34549922387583365 -0.42325593942512796
C -1.7540310444305118 -0.5587465084697592 -0.7298999067328017
S -0.8612746697755784 1.034299786797647 -0.8318017425807874
S 1.0660571476366902 0.42355163348488856 -1.2115720437626059
C 1.6919600886849357 0.07411748316450352 0.46970078176651126
C 3.1560101262064477 -0.3870468313559086 0.44129064905913795
N 4.087536296685539 0.6087990520855894 -0.09493928614859813
H -2.9857611945440237 1.116797298748458 0.9717341861398223
H -4.467186750851343 0.43699060450226945 1.0110707859736343
H -3.700409646041155 0.29850372711115186 -1.182999756207583
H -3.753022659135613 -1.3133810270278288 -0.4733413035017972
H -1.2994517916655135 -1.1835894365971968 0.04634071586545253
H -1.6587522456841366 -1.0740654349024092 -1.6913881240602875
H 1.0801266072524427 -0.7140660095842551 0.9202677445656181
H 1.6004600289903517 0.9783811054230183 1.0812087155588297
H 3.2511781912863524 -1.3114356482646052 -0.14016527707208837
H 3.4683060742812755 -0.6279872448777862 1.4636096303787958
H 4.000052413952755 1.4774636519820383 0.43227289503571603
H 3.796214371654196 0.8442379919501212 -1.046329582141215


--Link1--
%nprocshared=3
%mem=6GB
%Oldchk=APQPRKLAWCIJEK-UHFFFAOYSA-N_conf_1_0.chk
%Chk=APQPRKLAWCIJEK-UHFFFAOYSA-N_conf_1_1.chk
# freq B3LYP/6-31G** SCRF=(Solvent=water) volume NMR pop=NPA density=current Geom=AllCheck Guess=Read


--Link1--
%nprocshared=3
%mem=6GB
%Oldchk=APQPRKLAWCIJEK-UHFFFAOYSA-N_conf_1_1.chk
%Chk=APQPRKLAWCIJEK-UHFFFAOYSA-N_conf_1_2.chk
# TD(NStates=10, Root=1) B3LYP/6-31G** SCRF=(Solvent=water) volume pop=NPA density=current Geom=AllCheck Guess=Read



