%nprocshared=3
%mem=6GB
%Chk=APQPRKLAWCIJEK-UHFFFAOYSA-N_conf_3_0.chk
# opt=CalcFc B3LYP/6-31G** SCRF=(Solvent=water) scf=xqc 

APQPRKLAWCIJEK-UHFFFAOYSA-N_conf_3

0 1
N 3.5555980129146234 -0.14593935397193125 -1.302477198487443
C 2.4997770815497935 -0.8522631849102131 -0.5720415484016126
C 1.9235013683449702 -0.06482371219518239 0.6131888844568314
S 1.2425465673031122 1.5750037163212474 0.16910800619190944
S -0.38747042227635164 1.1025619292115232 -0.9943356081378878
C -1.6906542905640676 0.8427720685250427 0.2587157581195653
C -3.0208148139954707 0.4120567044396334 -0.37544921460520764
N -2.9892491577470626 -0.9385125076942128 -0.9387195084728898
H 4.266205752591266 0.18179967505743252 -0.6494599859571137
H 3.148951577372102 0.7025668628693658 -1.7041392875965984
H 2.9194555789054513 -1.7912825069462022 -0.19382570139142488
H 1.70746358791495 -1.1318080583473087 -1.2745228292509059
H 1.1471745847088035 -0.651084716896857 1.1161388589485068
H 2.7152663891762305 0.10901035766127642 1.3506307717194341
H -1.360621037489343 0.08832962746666854 0.9811009426904754
H -1.8442779454125326 1.7864233945403165 0.7929761525182484
H -3.799305685631696 0.4393093213864652 0.3957610406755949
H -3.320680424863561 1.1229372641774964 -1.1539382539762721
H -2.8100639607706834 -1.6215102545194902 -0.20469155042262588
H -3.902802762030727 -1.165546626175025 -1.329647718180611


--Link1--
%nprocshared=3
%mem=6GB
%Oldchk=APQPRKLAWCIJEK-UHFFFAOYSA-N_conf_3_0.chk
%Chk=APQPRKLAWCIJEK-UHFFFAOYSA-N_conf_3_1.chk
# freq B3LYP/6-31G** SCRF=(Solvent=water) volume NMR pop=NPA density=current Geom=AllCheck Guess=Read


--Link1--
%nprocshared=3
%mem=6GB
%Oldchk=APQPRKLAWCIJEK-UHFFFAOYSA-N_conf_3_1.chk
%Chk=APQPRKLAWCIJEK-UHFFFAOYSA-N_conf_3_2.chk
# TD(NStates=10, Root=1) B3LYP/6-31G** SCRF=(Solvent=water) volume pop=NPA density=current Geom=AllCheck Guess=Read



