%nprocshared=3
%mem=6GB
%Chk=APQPRKLAWCIJEK-UHFFFAOYSA-N_conf_0_0.chk
# opt=CalcFc B3LYP/6-31G** SCRF=(Solvent=water) scf=xqc 

APQPRKLAWCIJEK-UHFFFAOYSA-N_conf_0

0 1
N -3.863704495369181 0.09709973160885 -0.7823512315626102
C -2.723063013386011 0.7555551360686369 -0.14355388742613492
C -1.95642227979706 -0.16903323793190644 0.8111407486007751
S -1.205572563816609 -1.6239358324518154 -0.011402193826981483
S 0.2631126053295499 -0.7971119749035709 -1.1928919063350507
C 1.6552078823271088 -0.6469469503870323 -0.02202167679298841
C 2.881236798591401 -0.07585316810014166 -0.7414173972300787
N 4.0080347580037055 0.09442857672742622 0.17923641341377194
H -4.244597616346599 0.7061437998156976 -1.5053951827995042
H -3.5286770354691663 -0.7391183525811732 -1.2659449130832228
H -3.1008292421734205 1.6114204624969692 0.4267132054929223
H -2.0567028873105513 1.1594572968410808 -0.9130673192338535
H -1.1705761553078746 0.38992541845889084 1.3300827818841203
H -2.637406783232821 -0.5473730176651503 1.581845244249982
H 1.3594451809758779 0.01555878642189839 0.7984913125778482
H 1.888725966217747 -1.6354124871918407 0.38825053260530035
H 2.648412847967727 0.896805599205084 -1.190172038583236
H 3.193928389507072 -0.7500813569652223 -1.5469322457746073
H 4.809428174121932 0.45771045451796766 -0.3369888008416081
H 3.7800194691677054 0.8007611160153214 0.8783093586403107


--Link1--
%nprocshared=3
%mem=6GB
%Oldchk=APQPRKLAWCIJEK-UHFFFAOYSA-N_conf_0_0.chk
%Chk=APQPRKLAWCIJEK-UHFFFAOYSA-N_conf_0_1.chk
# freq B3LYP/6-31G** SCRF=(Solvent=water) volume NMR pop=NPA density=current Geom=AllCheck Guess=Read


--Link1--
%nprocshared=3
%mem=6GB
%Oldchk=APQPRKLAWCIJEK-UHFFFAOYSA-N_conf_0_1.chk
%Chk=APQPRKLAWCIJEK-UHFFFAOYSA-N_conf_0_2.chk
# TD(NStates=10, Root=1) B3LYP/6-31G** SCRF=(Solvent=water) volume pop=NPA density=current Geom=AllCheck Guess=Read



