%nprocshared=6
%mem=12GB
%Chk=DDAPSNKEOHDLKB-UHFFFAOYSA-N_conf_3_0.chk
# opt=CalcFc B3LYP/6-31G** SCRF=(Solvent=water) scf=xqc 

DDAPSNKEOHDLKB-UHFFFAOYSA-N_conf_3

0 1
N 0.23883799993622212 -3.03386731669578 -0.21367287985152772
C 1.1212206556534485 -1.9354321818866678 -0.1419683604598537
C 2.492789775987415 -2.1964561645176865 -0.11778140871055758
C 3.419269890018626 -1.15703828595928 -0.16568017434473428
C 3.0013784458130077 0.17255892816389737 -0.28497093224328524
C 3.953060634272226 1.2055419730775112 -0.332391028723605
C 3.5627626209363803 2.536162226005239 -0.46898110745573535
C 2.2146619479906957 2.849945827011394 -0.5648579070917132
C 1.2587846435010508 1.8324644584459109 -0.5190735967362192
C 1.6191504233793972 0.47083188437767914 -0.37195681297759076
C 0.669706986397043 -0.600241095315623 -0.3133845326860662
C -0.7931976754035356 -0.32406129587277394 -0.41250051390347936
C -1.5561395940973968 -0.016829551446486856 0.7609214053441131
C -1.0066648287070368 0.030657177250538833 2.065778384027939
C -1.7848720790787622 0.33346135977550784 3.1854970831571574
C -3.1379682763903234 0.6005244392533458 3.034521481553387
C -3.710175914072172 0.5669229188544541 1.7645219509885317
C -2.9387286016465364 0.2630487596588019 0.6299920870897737
C -3.5338585560933398 0.24928271984199318 -0.6358026968272911
C -2.788993793672696 -0.056077294276816826 -1.7729010692639664
C -1.4381312075861574 -0.3948410306123489 -1.6746752936546014
N -0.7131204616945642 -0.5912273865212722 -2.868664538878713
H 0.5775144017219066 -3.859589950548333 0.2690844278261941
H -0.7121706770129346 -2.797527013372114 0.061387324419684065
H 2.854095868938309 -3.219953294306484 -0.06050225606821939
H 4.478735867359643 -1.4006506621604369 -0.12402993658998816
H 5.015112087588396 0.9787287144734246 -0.26656764423431034
H 4.310730550265743 3.323260852903358 -0.5062463098463447
H 1.8989789586259738 3.883439525035164 -0.6792476813512321
H 0.21164146939309206 2.117367634525138 -0.6059580599399909
H 0.051696161211592845 -0.16790055851285685 2.2253045275803878
H -1.3277386400271747 0.3625791652003952 4.171038056795658
H -3.7480661121909846 0.8392751210277304 3.9013752342179435
H -4.771692779540085 0.7847656154635474 1.6655630391551839
H -4.588574556906047 0.4886826405134516 -0.753230492637596
H -3.275661888713676 -0.029438580279975736 -2.744387806327159
H -1.267412463957832 -0.9858375325386229 -3.6204044914117035
H 0.1430387178006779 -1.1225327460344732 -2.716263779628853


--Link1--
%nprocshared=6
%mem=12GB
%Oldchk=DDAPSNKEOHDLKB-UHFFFAOYSA-N_conf_3_0.chk
%Chk=DDAPSNKEOHDLKB-UHFFFAOYSA-N_conf_3_1.chk
# freq B3LYP/6-31G** SCRF=(Solvent=water) volume NMR pop=NPA density=current Geom=AllCheck Guess=Read


--Link1--
%nprocshared=6
%mem=12GB
%Oldchk=DDAPSNKEOHDLKB-UHFFFAOYSA-N_conf_3_1.chk
%Chk=DDAPSNKEOHDLKB-UHFFFAOYSA-N_conf_3_2.chk
# TD(NStates=10, Root=1) B3LYP/6-31G** SCRF=(Solvent=water) volume pop=NPA density=current Geom=AllCheck Guess=Read



