%nprocshared=6
%mem=12GB
%Chk=DDAPSNKEOHDLKB-UHFFFAOYSA-N_conf_2_0.chk
# opt=CalcFc B3LYP/6-31G** SCRF=(Solvent=water) scf=xqc 

DDAPSNKEOHDLKB-UHFFFAOYSA-N_conf_2

0 1
N 0.0009713177790369402 -0.1021237520356912 -3.0504852135046003
C 0.938407569248672 -0.29903304636179967 -2.0147545252986
C 2.2306903840981738 -0.6944903479415991 -2.366237235830831
C 3.2345449240707898 -0.7926134031351958 -1.4051456268146405
C 2.98673868628821 -0.45417654079150416 -0.07069721230199394
C 4.014178250156149 -0.5597238637902864 0.8823121066726272
C 3.797335054933152 -0.211578326983733 2.213969543029506
C 2.550326750805825 0.25154190997707715 2.608322765929295
C 1.5207104122050623 0.36108936195816554 1.6708020626871383
C 1.7031577268732372 0.007716120199450104 0.31161464639405095
C 0.6715345184680854 0.09863183019909715 -0.6781080562859999
C -0.6889449297113083 0.5908636796662236 -0.3134365726784131
C -1.6848883903495755 -0.31789699630552415 0.17198254979292596
C -1.4719154464858193 -1.7102579503176587 0.32300192614169443
C -2.469782218569765 -2.5638018241127383 0.799245753021774
C -3.712431969100484 -2.050379538267706 1.1415953505900676
C -3.9546036294063374 -0.6845786593735004 1.0097144595467864
C -2.9597132012674003 0.1848542999644936 0.5312705450060122
C -3.2231610625636287 1.55418369699398 0.4211041722895488
C -2.253420144323469 2.4327345175803483 -0.05723481233884679
C -1.006711609582426 1.9643799322818365 -0.4762785233807992
N -0.031790498842646675 2.912347335730198 -0.8513878527834201
H -0.9617102444372397 -0.10406626558194458 -2.7200771174357476
H 0.1305502604497628 -0.726003405307522 -3.840141592776838
H 2.468167697292789 -0.9318418036159519 -3.3999902724546884
H 4.223135006579309 -1.1238953937203384 -1.7157770214716344
H 5.000909773124689 -0.9134336964011832 0.5907933977515069
H 4.6025025033104665 -0.2967069936055758 2.938421000299499
H 2.3718537520249914 0.5331186493084711 3.6425907001397273
H 0.5590426456595508 0.7363936692250189 2.01659004056831
H -0.5091713400898306 -2.1508397918298767 0.06999809004177535
H -2.26895960615677 -3.626765457227471 0.9036548662311775
H -4.491901748612133 -2.708843412988784 1.5151130786600693
H -4.933485494047083 -0.2998270105290622 1.288682367463847
H -4.188897224153275 1.9568842572140794 0.7189565385346119
H -2.4809365882402927 3.4945719753557856 -0.10280278363801972
H -0.4185319766876098 3.742727068390742 -1.286096610047833
H 0.7062000892585154 2.5008391761798165 -1.421084931750618


--Link1--
%nprocshared=6
%mem=12GB
%Oldchk=DDAPSNKEOHDLKB-UHFFFAOYSA-N_conf_2_0.chk
%Chk=DDAPSNKEOHDLKB-UHFFFAOYSA-N_conf_2_1.chk
# freq B3LYP/6-31G** SCRF=(Solvent=water) volume NMR pop=NPA density=current Geom=AllCheck Guess=Read


--Link1--
%nprocshared=6
%mem=12GB
%Oldchk=DDAPSNKEOHDLKB-UHFFFAOYSA-N_conf_2_1.chk
%Chk=DDAPSNKEOHDLKB-UHFFFAOYSA-N_conf_2_2.chk
# TD(NStates=10, Root=1) B3LYP/6-31G** SCRF=(Solvent=water) volume pop=NPA density=current Geom=AllCheck Guess=Read



