%nprocshared=6
%mem=12GB
%Chk=JSKXMAPMKXVJKT-UHFFFAOYSA-N_conf_2_0.chk
# opt=CalcFc B3LYP/6-31G** SCRF=(Solvent=water) scf=xqc 

JSKXMAPMKXVJKT-UHFFFAOYSA-N_conf_2

0 1
C 3.770518426312076 2.1227682670638774 2.4788726563387113
C 3.1880176480449456 1.1210199064818387 1.5291408552081607
C 1.971799732800458 0.49410441712892145 1.8125507186807563
C 1.4224913695504524 -0.4202935437641762 0.9092686821564029
C 2.0419412639988144 -0.7008021790959101 -0.31726764719894357
N 1.4681557975785708 -1.6631311239379432 -1.1660673582399452
C 1.4738610832416057 -1.4029874301781624 -2.6062546376221545
C 0.3533829131168932 -0.4383487399715946 -3.0068855944622697
C -1.0340320761082875 -1.0888591509587289 -3.010053345976631
N -1.41102164782917 -1.6360013149599801 -1.7072192001733022
C -2.074758855889434 -0.8584507844314789 -0.7520380424852797
C -2.612353184137928 -1.5134373592207604 0.366122761234679
C -3.236882820749086 -0.8066401484974844 1.399671553364574
C -3.32834770268355 0.5857512709013581 1.3477606307854815
C -3.9712873074099906 1.3545505894189624 2.4603935673439996
C -2.7487906275092913 1.2541151622257676 0.2658085436528508
C -2.1229833307079646 0.5375106827594271 -0.7625569943165083
C 3.272796272324618 -0.09075131143997708 -0.5761481664854843
C 3.833307466150975 0.824209994864353 0.324984978597473
H 4.862487281355584 2.055507938501158 2.4930865681778687
H 3.4780998859251175 3.134455701818114 2.177868255627155
H 3.424533246247136 1.944905339403132 3.5013412969370843
H 1.443975485161008 0.7029374569325457 2.7412168995196287
H 0.48646547064245 -0.905802202830793 1.169392822462435
H 0.49395806749097904 -1.830798723730954 -0.874384651003378
H 1.3331396519185523 -2.358931657357146 -3.1219671419483865
H 2.4401306997954766 -1.021531285855405 -2.9543954376792594
H 0.5529086582760491 -0.09058358938486241 -4.027581202777961
H 0.37087565406720435 0.44952481593219606 -2.3663852462045294
H -1.7927647417448989 -0.39173273568988526 -3.383101061013344
H -1.019700708872887 -1.9199636761233354 -3.7271448986286093
H -1.8650128457463482 -2.543774883573415 -1.794502239167761
H -2.545817318974861 -2.5981126459222454 0.44541853021470373
H -3.647411436947152 -1.3558546152999256 2.2443573413419107
H -3.2079194684785812 1.7378235776929736 3.142485484328693
H -4.662344065451884 0.7219739136951177 3.0301808588392256
H -4.550249314291318 2.1947395568804544 2.0659691799070026
H -2.7756082936383106 2.338726591477891 0.21387910104105048
H -1.6922265957541482 1.1042821939000858 -1.5802885900539982
H 3.8311280740942446 -0.3312195369854608 -1.4748493518769068
H 4.785538194828724 1.289101262132734 0.07912332190459556


--Link1--
%nprocshared=6
%mem=12GB
%Oldchk=JSKXMAPMKXVJKT-UHFFFAOYSA-N_conf_2_0.chk
%Chk=JSKXMAPMKXVJKT-UHFFFAOYSA-N_conf_2_1.chk
# freq B3LYP/6-31G** SCRF=(Solvent=water) volume NMR pop=NPA density=current Geom=AllCheck Guess=Read


--Link1--
%nprocshared=6
%mem=12GB
%Oldchk=JSKXMAPMKXVJKT-UHFFFAOYSA-N_conf_2_1.chk
%Chk=JSKXMAPMKXVJKT-UHFFFAOYSA-N_conf_2_2.chk
# TD(NStates=10, Root=1) B3LYP/6-31G** SCRF=(Solvent=water) volume pop=NPA density=current Geom=AllCheck Guess=Read



