%nprocshared=4
%mem=8GB
%Chk=VXPJBVRYAHYMNY-UHFFFAOYSA-N_conf_3_0.chk
# opt=CalcFc B3LYP/6-31G** SCRF=(Solvent=water) scf=xqc 

VXPJBVRYAHYMNY-UHFFFAOYSA-N_conf_3

0 1
C 3.9980478290580903 0.8384567698048835 -0.18553607573176878
N 2.7878215065684433 0.058744149005617204 -0.3942259423536921
C 2.0318261318734345 -0.09804201188803777 0.8561606986588558
C 0.7772952196677634 -0.9677723704915449 0.670559786933522
O -0.20591123411923137 -0.2626186684004423 -0.08848454065193238
C -1.3721169518241756 -1.0581339026485097 -0.31707980864081053
C -2.386488229046461 -0.24861329960974277 -1.140166711366082
N -2.7092030674492853 1.0691017580689064 -0.5714546082091331
C -3.51968635262593 0.9739718437485504 0.632898827692959
H 3.764356445876967 1.842212902102256 0.18382374777577057
H 4.676168050104079 0.3463175949904053 0.519134875425623
H 4.526821890663115 0.9532759551791196 -1.1368035964884224
H 3.02325700912054 -0.8545416475370045 -0.7776252679351999
H 1.7290657927827355 0.8902578673087205 1.2214343729338457
H 2.6700813098844236 -0.5704495424555351 1.6120270344484515
H 1.0343051386480326 -1.9096309625743872 0.17110315366760578
H 0.35832798746321093 -1.2004182467983733 1.6565501040897115
H -1.8052403798455474 -1.3614654122733842 0.6424171749924432
H -1.093675892897903 -1.9596762152228069 -0.8747944052699531
H -1.9480659765805832 -0.060377537578659525 -2.127440270873134
H -3.297802266615071 -0.8341912817866307 -1.3064445079534346
H -1.8155773886957174 1.512566015441813 -0.33599789839150246
H -4.460040152862883 0.4486423220406341 0.4375878401620889
H -2.990381848713746 0.47095407072753215 1.4475981671482727
H -3.7731845704341556 1.9814298508466341 0.9775624806445915


--Link1--
%nprocshared=4
%mem=8GB
%Oldchk=VXPJBVRYAHYMNY-UHFFFAOYSA-N_conf_3_0.chk
%Chk=VXPJBVRYAHYMNY-UHFFFAOYSA-N_conf_3_1.chk
# freq B3LYP/6-31G** SCRF=(Solvent=water) volume NMR pop=NPA density=current Geom=AllCheck Guess=Read


--Link1--
%nprocshared=4
%mem=8GB
%Oldchk=VXPJBVRYAHYMNY-UHFFFAOYSA-N_conf_3_1.chk
%Chk=VXPJBVRYAHYMNY-UHFFFAOYSA-N_conf_3_2.chk
# TD(NStates=10, Root=1) B3LYP/6-31G** SCRF=(Solvent=water) volume pop=NPA density=current Geom=AllCheck Guess=Read



