%nprocshared=4
%mem=8GB
%Chk=VXPJBVRYAHYMNY-UHFFFAOYSA-N_conf_4_0.chk
# opt=CalcFc B3LYP/6-31G** SCRF=(Solvent=water) scf=xqc 

VXPJBVRYAHYMNY-UHFFFAOYSA-N_conf_4

0 1
C -3.931600209431784 0.9526070267602011 -0.019671603399562226
N -2.744123700340894 1.107474371664716 0.8083776826655412
C -1.873681270526994 -0.07215107334995113 0.7687846962547803
C -1.1021508637297301 -0.2653938873258222 -0.5483460298815139
O -0.2514958084573792 -1.4127083229524173 -0.4829705610820345
C 1.0359569378338087 -1.1555074546777342 0.08349973820630409
C 2.009770158178956 -0.6093323644352877 -0.9753305371826045
N 3.406255892743354 -0.5040284277055869 -0.5409096325574804
C 3.609406696753386 0.5290676100530182 0.46330220430481706
H -3.6835920135028863 0.883100855173259 -1.082879705346265
H -4.579311733841321 1.8250955210319553 0.11195935598372783
H -4.509154804987243 0.07005527654891465 0.27358450554955
H -2.2265149730463842 1.9344603232591044 0.513378806587242
H -2.441309378525417 -0.9812186277994235 1.0047810472503
H -1.1547417752988243 0.026804415186042572 1.5898100544503442
H -0.5313742945931605 0.632629691672338 -0.8090564944877204
H -1.8074706269739358 -0.45176247801664715 -1.3644826591855095
H 1.4105552288895686 -2.1166350581986273 0.4529036854647305
H 0.9532161492178931 -0.4850973172163349 0.9448427139390387
H 1.9789427598423968 -1.2776042832979684 -1.844866030669443
H 1.6620262541173974 0.35858869484084477 -1.3547664259042904
H 3.723464146658432 -1.4034401769672618 -0.17941757138738113
H 3.2653667533981503 1.5048940118551315 0.10572090991441983
H 4.678909105450642 0.6182449054905068 0.6783708074535396
H 3.102651370172051 0.29185676840683733 1.4033810430594662


--Link1--
%nprocshared=4
%mem=8GB
%Oldchk=VXPJBVRYAHYMNY-UHFFFAOYSA-N_conf_4_0.chk
%Chk=VXPJBVRYAHYMNY-UHFFFAOYSA-N_conf_4_1.chk
# freq B3LYP/6-31G** SCRF=(Solvent=water) volume NMR pop=NPA density=current Geom=AllCheck Guess=Read


--Link1--
%nprocshared=4
%mem=8GB
%Oldchk=VXPJBVRYAHYMNY-UHFFFAOYSA-N_conf_4_1.chk
%Chk=VXPJBVRYAHYMNY-UHFFFAOYSA-N_conf_4_2.chk
# TD(NStates=10, Root=1) B3LYP/6-31G** SCRF=(Solvent=water) volume pop=NPA density=current Geom=AllCheck Guess=Read



