%nprocshared=4
%mem=8GB
%Chk=QLBRROYTTDFLDX-OCAPTIKFSA-N_conf_0_0.chk
# opt=CalcFc B3LYP/6-31G** SCRF=(Solvent=water) scf=xqc 

QLBRROYTTDFLDX-OCAPTIKFSA-N_conf_0

0 1
N 3.738667173391492 0.7351681954998038 -0.18033743331285568
C 2.472561937739075 0.9607770757349894 0.5085228249279626
C 1.265369898572464 0.4203126025742485 -0.2810245487132424
C -0.0385022943473702 0.8324003891640562 0.4261228892598268
C -1.2923250806505289 0.31500969332067935 -0.3020200247637893
C -2.5526336717513596 0.7538844072169152 0.46727240899944006
N -3.784449691586117 0.4254351101537008 -0.24209388252531894
C -1.2130397123920937 -1.209701211568621 -0.47841415249857905
C 0.07608354994718987 -1.631155896938841 -1.1768684869875297
C 1.3145819165937729 -1.1056364375819172 -0.45766641727492285
H 3.929310768508092 -0.26374552694847386 -0.23947750383271096
H 4.497737688811624 1.1329915389595773 0.371550124663204
H 2.3557678968244407 2.0401355648230393 0.658655426654015
H 2.515794463076439 0.4989729237567719 1.5018189987603623
H 1.2693684483142047 0.8830881051679328 -1.2779938809937381
H -0.08410592738202789 1.9270258800421536 0.49150478894143323
H -0.03145840220467286 0.45560613101712727 1.4578298325483146
H -1.3180094874837416 0.7765629647269422 -1.2992328130397763
H -2.5274306789410477 1.8390888047511023 0.6185720547993057
H -2.5740339765981157 0.28941788236083793 1.4600372671776005
H -3.8913434681371584 -0.585728435458398 -0.3036824958316983
H -4.582594541644921 0.7591410107973693 0.2970138638071219
H -2.0608868796714317 -1.57353190524905 -1.0693642213521226
H -1.272036892750086 -1.7012311547872103 0.5010110135267117
H 0.06927798374390857 -1.260036345386449 -2.2092329183544863
H 0.12156911465154012 -2.724790874748129 -1.2328681058505022
H 2.199035955025548 -1.3981453697222812 -1.034398140088719
H 1.3977239103407113 -1.5913151216778234 0.522924972533812


--Link1--
%nprocshared=4
%mem=8GB
%Oldchk=QLBRROYTTDFLDX-OCAPTIKFSA-N_conf_0_0.chk
%Chk=QLBRROYTTDFLDX-OCAPTIKFSA-N_conf_0_1.chk
# freq B3LYP/6-31G** SCRF=(Solvent=water) volume NMR pop=NPA density=current Geom=AllCheck Guess=Read


--Link1--
%nprocshared=4
%mem=8GB
%Oldchk=QLBRROYTTDFLDX-OCAPTIKFSA-N_conf_0_1.chk
%Chk=QLBRROYTTDFLDX-OCAPTIKFSA-N_conf_0_2.chk
# TD(NStates=10, Root=1) B3LYP/6-31G** SCRF=(Solvent=water) volume pop=NPA density=current Geom=AllCheck Guess=Read



