%nprocshared=4
%mem=8GB
%Chk=QOHMWDJIBGVPIF-UHFFFAOYSA-N_conf_0_0.chk
# opt=CalcFc B3LYP/6-31G** SCRF=(Solvent=water) scf=xqc 

QOHMWDJIBGVPIF-UHFFFAOYSA-N_conf_0

0 1
C 2.2066996388140128 1.77698882903513 -0.09047817782779327
C 1.016149365145705 1.3023083514377702 0.7379645857084499
N 0.2281442519193991 0.18879707727081046 0.18026401398243935
C -0.4679391880385399 0.5918210757004133 -1.05845650476669
C -1.675440616619883 -0.2823361000484476 -1.4471967896598767
C -2.804899701061873 -0.2933665018987986 -0.4128061435726715
N -2.4526032430873017 -1.0548976197396418 0.7799277633677235
C 1.0041511178031104 -1.0491601703096631 -0.020501214471721353
C 1.6247893818306107 -1.5959263949442897 1.261820414564974
H 2.9612004499764644 0.9932367019701855 -0.20456592048877814
H 2.6885438488106317 2.6242419946726074 0.40910542329529
H 1.9005160113140176 2.1139355832888 -1.0852823313819357
H 0.3465949653847283 2.1562322152164763 0.9052244472769156
H 1.365622540668551 1.0359372129445974 1.7422005727539727
H 0.2338976444287637 0.6181097196677476 -1.901909452885336
H -0.8494641150356629 1.6153153573161396 -0.9442651386845654
H -1.3616331519940612 -1.3067607748593426 -1.6782016195497733
H -2.0839403125406717 0.12087789925220696 -2.383103056407038
H -3.699672006859282 -0.7418487082132902 -0.8571409607350526
H -3.0595225112929714 0.7345062338192859 -0.1310644604127075
H -3.0877681385506057 -0.8146438575062707 1.5379963135615524
H -1.521158883037929 -0.7401103126280398 1.0801735640252468
H 1.7862242052636113 -0.9130291645240408 -0.7768031843369184
H 0.34284170410148 -1.8363454932255812 -0.39864167318224797
H 0.8729638785242575 -1.7019155281521896 2.0508720919409877
H 2.0538641570091656 -2.585946342440703 1.0741489853417423
H 2.4318387071246566 -0.9560212831021304 1.6307184525437692


--Link1--
%nprocshared=4
%mem=8GB
%Oldchk=QOHMWDJIBGVPIF-UHFFFAOYSA-N_conf_0_0.chk
%Chk=QOHMWDJIBGVPIF-UHFFFAOYSA-N_conf_0_1.chk
# freq B3LYP/6-31G** SCRF=(Solvent=water) volume NMR pop=NPA density=current Geom=AllCheck Guess=Read


--Link1--
%nprocshared=4
%mem=8GB
%Oldchk=QOHMWDJIBGVPIF-UHFFFAOYSA-N_conf_0_1.chk
%Chk=QOHMWDJIBGVPIF-UHFFFAOYSA-N_conf_0_2.chk
# TD(NStates=10, Root=1) B3LYP/6-31G** SCRF=(Solvent=water) volume pop=NPA density=current Geom=AllCheck Guess=Read



