%nprocshared=6
%mem=12GB
%Chk=OXEZLYIDQPBCBB-UHFFFAOYSA-N_conf_3_0.chk
# opt=CalcFc B3LYP/6-31G** SCRF=(Solvent=water) scf=xqc 

OXEZLYIDQPBCBB-UHFFFAOYSA-N_conf_3

0 1
C -2.1172750401916347 -0.1702527481486721 -0.24129791936692377
C -0.6549053045420851 -0.5327154850755708 -0.5643172963442968
C -0.045371658172843776 0.3352389074908876 -1.666454233365113
C 1.3324291417663636 -0.131021728313474 -2.157986691631868
C 2.51152898171843 -0.07812202621184054 -1.1661100021345936
C 2.561112119223883 1.1946682909202961 -0.3143094962771991
C 3.8208520606811565 1.2229415844326723 0.5600903698758686
N 4.209775693889633 -0.07145854874833964 1.1308978228555107
C 3.1052820439451114 -1.0272352302752412 1.1353204199087072
C 2.6285524769019344 -1.3385985663209883 -0.28559788754577736
C -2.6994144684886425 -1.1796730014249817 0.761880058348083
C -4.120048530864471 -0.8041415057233986 1.177659956324552
N -4.171746499645129 0.5479247565027341 1.730814345369178
C -3.7002303546311146 1.5359127625588205 0.7622698545959278
C -2.2643823834545382 1.2519761516744305 0.32109334560244507
H -2.703800874282691 -0.23711008849220416 -1.1679059288060503
H -0.6167840266098951 -1.5824421576315604 -0.8813011924337439
H -0.05658173724176754 -0.4497856238587979 0.34966599923423747
H -0.7230733058607569 0.3293208076708395 -2.529933806293239
H 0.01912065842098198 1.3784595691307502 -1.3401012852678509
H 1.5942362153121725 0.5158038363701186 -3.0067942535323677
H 1.248980499207543 -1.1431385822243885 -2.573891614761566
H 3.4176878947717637 -0.06914466276254044 -1.7912625536182205
H 1.6799122949560408 1.2537009963387047 0.33565682705193484
H 2.5439337782670925 2.0842235928440247 -0.9549491304232254
H 3.671502380835278 1.939646685433246 1.3757233773686868
H 4.663015817791256 1.6038971614135904 -0.030185529847826856
H 4.973211774521378 -0.4592002777688319 0.5759816272179178
H 2.2785882755723277 -0.6441452964686654 1.746107518460657
H 3.4351569698370747 -1.9544918420680015 1.617041807510273
H 3.3396174438932196 -2.026364605852934 -0.7628045691576586
H 1.6845571303203657 -1.8881325495797823 -0.22811959621486957
H -2.7057885767489003 -2.18335813388661 0.32008906839328205
H -2.0610000829981203 -1.229703818108233 1.653959976246638
H -4.469438134300318 -1.511165672687138 1.9380069991132989
H -4.8019729432905365 -0.8902174414882864 0.3228525753576983
H -5.131833339586721 0.7671222650751249 1.9950472466218307
H -4.366414191322788 1.5580064710355 -0.10895376919120918
H -3.7429153774930506 2.529553798490642 1.2216786787064389
H -1.9792885422519633 1.9929358378290745 -0.4338050403654644
H -1.586788279857756 1.3871946782173987 1.1742439224160934


--Link1--
%nprocshared=6
%mem=12GB
%Oldchk=OXEZLYIDQPBCBB-UHFFFAOYSA-N_conf_3_0.chk
%Chk=OXEZLYIDQPBCBB-UHFFFAOYSA-N_conf_3_1.chk
# freq B3LYP/6-31G** SCRF=(Solvent=water) volume NMR pop=NPA density=current Geom=AllCheck Guess=Read


--Link1--
%nprocshared=6
%mem=12GB
%Oldchk=OXEZLYIDQPBCBB-UHFFFAOYSA-N_conf_3_1.chk
%Chk=OXEZLYIDQPBCBB-UHFFFAOYSA-N_conf_3_2.chk
# TD(NStates=10, Root=1) B3LYP/6-31G** SCRF=(Solvent=water) volume pop=NPA density=current Geom=AllCheck Guess=Read



