%nprocshared=6
%mem=12GB
%Chk=OXEZLYIDQPBCBB-UHFFFAOYSA-N_conf_4_0.chk
# opt=CalcFc B3LYP/6-31G** SCRF=(Solvent=water) scf=xqc 

OXEZLYIDQPBCBB-UHFFFAOYSA-N_conf_4

0 1
C -1.886162388419727 0.0750278620702045 -0.299716765354987
C -0.8180740752001178 0.8977003547805562 -1.0433230746259454
C 0.21053583582539895 1.6104133114377395 -0.15781693101882815
C 0.9992139244096285 0.7160426911900015 0.8070888883005195
C 1.7533597875015356 -0.46797575103437783 0.16168396320365147
C 2.8023767698848414 -0.040472546747802485 -0.8774682706658123
C 4.036765500241409 0.590211437238918 -0.23258873528040427
N 4.650064997702734 -0.30403344997482196 0.751505856230507
C 3.699275236008083 -0.6651215274197491 1.8045222417724263
C 2.4424061042661247 -1.3280251250238722 1.2377646891459793
C -2.793595275267405 -0.6604394119402053 -1.3113455697118064
C -4.242347342363309 -0.7977491993807229 -0.8351871851984575
N -4.311946416896658 -1.070756282150234 0.596628288931245
C -3.776245695675999 0.044676889092577006 1.3839326404264487
C -2.7430382508723423 0.914472684805579 0.6545949455192951
H -1.3786787687895872 -0.6947210889963468 0.29643135748868255
H -1.3166263177852295 1.6598326464515087 -1.656813956094571
H -0.29001485264565086 0.2446969841671993 -1.7491682720296526
H 0.9106601896345023 2.1501342860160704 -0.806482276097757
H -0.293705469304642 2.3885467880422375 0.42778711230027033
H 1.700390756336828 1.3579832648120949 1.3529257117715643
H 0.3101713545297019 0.32483765019552774 1.5659875035515654
H 1.0154072239714784 -1.1054486899143077 -0.3401773624518952
H 2.3756497375871257 0.6467595121442609 -1.6147136053607785
H 3.116073932149019 -0.9289774918348535 -1.4424165757696732
H 3.7864742481403857 1.5488864839613736 0.23585884526084994
H 4.776060008810154 0.8113820815797409 -1.0105498475494095
H 4.954645307738568 -1.1548754405007384 0.2776934700421985
H 4.190746633262231 -1.3587927570730993 2.4959720850352802
H 3.441112990538144 0.22213537294119665 2.393652022301857
H 2.721375644252713 -2.292341320151496 0.7921429158663171
H 1.7440180843711637 -1.554546016091504 2.0520151758141028
H -2.369298356124369 -1.6559650840986584 -1.4955994832598387
H -2.800051320197026 -0.14591445447039703 -2.2801897820969557
H -4.812205090882548 0.1097153144848431 -1.0709083602357095
H -4.728071445730123 -1.6123453074379006 -1.3839378903406205
H -3.7628922523219885 -1.9076672514594815 0.7949432152864102
H -4.6056778082614525 0.6801702032258922 1.7150979794697383
H -3.3259060333559036 -0.367359606957343 2.2950136753551935
H -3.2587541841588954 1.7006037848176847 0.08781136470476937
H -2.1234929229091275 1.4192981992072822 1.403369062099601


--Link1--
%nprocshared=6
%mem=12GB
%Oldchk=OXEZLYIDQPBCBB-UHFFFAOYSA-N_conf_4_0.chk
%Chk=OXEZLYIDQPBCBB-UHFFFAOYSA-N_conf_4_1.chk
# freq B3LYP/6-31G** SCRF=(Solvent=water) volume NMR pop=NPA density=current Geom=AllCheck Guess=Read


--Link1--
%nprocshared=6
%mem=12GB
%Oldchk=OXEZLYIDQPBCBB-UHFFFAOYSA-N_conf_4_1.chk
%Chk=OXEZLYIDQPBCBB-UHFFFAOYSA-N_conf_4_2.chk
# TD(NStates=10, Root=1) B3LYP/6-31G** SCRF=(Solvent=water) volume pop=NPA density=current Geom=AllCheck Guess=Read



