%nprocshared=6
%mem=12GB
%Chk=OXEZLYIDQPBCBB-UHFFFAOYSA-N_conf_0_0.chk
# opt=CalcFc B3LYP/6-31G** SCRF=(Solvent=water) scf=xqc 

OXEZLYIDQPBCBB-UHFFFAOYSA-N_conf_0

0 1
C 2.2417074170956455 0.27241563723508316 0.2771676024556116
C 0.8731003989540487 -0.43182620954111367 0.29425265351996116
C -0.062217160932422626 0.058587327624459874 -0.8157200789047866
C -1.4026206132715435 -0.6868894154382986 -0.8657357588951131
C -2.2581517019977735 -0.6382566965854755 0.4198037237554875
C -2.617223285100645 0.7855062030872881 0.8736468395314538
C -3.663767456925923 1.4360464394024055 -0.030987303996480788
N -4.880611589813762 0.626120550467984 -0.11872417350029635
C -4.588485966274653 -0.7159969800683872 -0.6255540122846869
C -3.5586922189641315 -1.4444570917085569 0.24044318514679192
C 3.0393638512647967 -0.01009101656344386 -1.0126400266871491
C 4.5518254751215315 -0.08739082408189809 -0.780304737900654
N 4.996090198180096 0.894040560560632 0.20483158588698092
C 4.412356682232184 0.6346828400814135 1.525600408117579
C 3.0772186666790966 -0.12019722992495403 1.5015572226949074
H 2.06221133745348 1.3555010496513957 0.3346690204013367
H 1.0126721919275326 -1.516544684495344 0.20698281981011246
H 0.40432126864229595 -0.24912882075218076 1.2681066859574033
H 0.42223763632746664 -0.07503538921383646 -1.79024538996108
H -0.23356410824139495 1.1354420425429947 -0.708496059856519
H -1.9708924334186906 -0.28864477434335883 -1.714129656796266
H -1.1991285328153918 -1.7383384383444591 -1.1081644946242915
H -1.686302647133662 -1.120559932637718 1.2220060815977878
H -3.017619572186997 0.7356759663040233 1.8955349026038923
H -1.7283734561917672 1.4213519395541006 0.9328293807322037
H -3.9283668721964027 2.4193772181826 0.37361751823800327
H -3.257719352545509 1.6139900405416725 -1.0333366400280386
H -5.28850098228219 0.5437409934789432 0.8129715209483582
H -4.250988776696112 -0.6553958865022649 -1.6663569971243253
H -5.519279552051232 -1.294174395437761 -0.6396628957443464
H -3.997045350739136 -1.629709164436691 1.2303138307225467
H -3.3424328008463826 -2.4288714897461077 -0.19108904220650816
H 2.8200518015304556 0.7831023125432888 -1.7388344825847835
H 2.7178803447236515 -0.9521095249850603 -1.4734289230056212
H 5.072873620414267 0.08844542798757443 -1.7280686316897516
H 4.839779191499186 -1.0959585449349174 -0.45822682355832367
H 4.705550016471628 1.821208327712408 -0.10712070302593882
H 5.130643675052786 0.06903846770851126 2.1301805289600537
H 4.277494317183051 1.5971019700436448 2.033593998735016
H 2.5280969086625436 0.08983662344489314 2.427100405211017
H 3.2665094312093945 -1.2016354284132476 1.4854369922225774


--Link1--
%nprocshared=6
%mem=12GB
%Oldchk=OXEZLYIDQPBCBB-UHFFFAOYSA-N_conf_0_0.chk
%Chk=OXEZLYIDQPBCBB-UHFFFAOYSA-N_conf_0_1.chk
# freq B3LYP/6-31G** SCRF=(Solvent=water) volume NMR pop=NPA density=current Geom=AllCheck Guess=Read


--Link1--
%nprocshared=6
%mem=12GB
%Oldchk=OXEZLYIDQPBCBB-UHFFFAOYSA-N_conf_0_1.chk
%Chk=OXEZLYIDQPBCBB-UHFFFAOYSA-N_conf_0_2.chk
# TD(NStates=10, Root=1) B3LYP/6-31G** SCRF=(Solvent=water) volume pop=NPA density=current Geom=AllCheck Guess=Read



