%nprocshared=4
%mem=8GB
%Chk=MQJKPEGWNLWLTK-UHFFFAOYSA-N_conf_0_0.chk
# opt=CalcFc B3LYP/6-31G** SCRF=(Solvent=water) scf=xqc 

MQJKPEGWNLWLTK-UHFFFAOYSA-N_conf_0

0 1
O 0.17648447351581698 2.5844548982098545 -1.518691857814156
S 0.1553652346494662 2.017383881030768 -0.18213412392390302
C -1.346328762214456 1.0829883503445612 -0.005688196820004604
C -2.1993773337518863 0.9143326272177403 -1.0968377760337218
C -3.3773611853185788 0.17950083224128216 -0.9378604388098882
C -3.6915634586790644 -0.41581450350178156 0.2884636953086414
N -4.927404564625058 -1.045313578320095 0.4675559638240558
C -2.859293050009595 -0.17649941073682354 1.38697968929222
C -1.6781642116342408 0.5559643502477599 1.2438063481093027
C 1.4850283581560313 0.839804812392511 -0.10767731507080691
C 2.297669300824479 0.7712129355110643 1.0244753131003776
C 3.3346615762473384 -0.16431673397218766 1.0668593327785123
C 3.5969623712329675 -0.9940148109531033 -0.028539761023857402
N 4.556534720850413 -2.007217545502473 0.07142987483236733
C 2.7437803988426253 -0.9412660327535898 -1.1358505574312796
C 1.7028808188502238 -0.011261402727759964 -1.1928219828947344
O 0.25431453657817843 2.8771371357546713 0.9836531002794676
H -1.971594734944649 1.359777179390282 -2.0624757139755485
H -4.054340921060679 0.07867065256246226 -1.7827519159568816
H -4.954666930620232 -1.694301280912465 1.2477217630454787
H -5.318195176049781 -1.44398304808686 -0.38032376008808666
H -3.129315846333623 -0.5567641325851143 2.369177488182341
H -1.0422314263720183 0.7253604404377632 2.10947146019095
H 2.130475468213737 1.4256010760236262 1.8768818377636696
H 3.943363191303961 -0.23706054733836823 1.9648936294980257
H 5.312182017105128 -1.7967249134764696 0.7164084930135963
H 4.900462018922051 -2.3391931344800243 -0.8244890227422943
H 2.888681968239846 -1.624179791824693 -1.9693732960859138
H 1.0709911480817136 0.03572169580745291 -2.076516677763977


--Link1--
%nprocshared=4
%mem=8GB
%Oldchk=MQJKPEGWNLWLTK-UHFFFAOYSA-N_conf_0_0.chk
%Chk=MQJKPEGWNLWLTK-UHFFFAOYSA-N_conf_0_1.chk
# freq B3LYP/6-31G** SCRF=(Solvent=water) volume NMR pop=NPA density=current Geom=AllCheck Guess=Read


--Link1--
%nprocshared=4
%mem=8GB
%Oldchk=MQJKPEGWNLWLTK-UHFFFAOYSA-N_conf_0_1.chk
%Chk=MQJKPEGWNLWLTK-UHFFFAOYSA-N_conf_0_2.chk
# TD(NStates=10, Root=1) B3LYP/6-31G** SCRF=(Solvent=water) volume pop=NPA density=current Geom=AllCheck Guess=Read



