%nprocshared=4
%mem=8GB
%Chk=MQJKPEGWNLWLTK-UHFFFAOYSA-N_conf_1_0.chk
# opt=CalcFc B3LYP/6-31G** SCRF=(Solvent=water) scf=xqc 

MQJKPEGWNLWLTK-UHFFFAOYSA-N_conf_1

0 1
O -0.0792455304468554 0.6529433068885554 -2.919593824394347
S -0.026871667097693428 1.2233168129305916 -1.5855012148602934
C -1.438351380291445 0.5875016018402693 -0.7124464069371792
C -1.6816031286294744 -0.7873115267237856 -0.7222585259206761
C -2.7825093190580175 -1.2927771928146876 -0.026477590038386605
C -3.6663995282107575 -0.4346205200983761 0.6362749639409178
N -4.692782731171356 -0.9588970376056583 1.4292684630547101
C -3.37870909014829 0.9339215944864238 0.6742540091315316
C -2.2814520477247338 1.4544772527594125 -0.016647503150122516
C 1.412752193920531 0.5776595422833298 -0.7673485810273175
C 2.256390202813148 -0.31320480155121744 -1.4316022067845322
C 3.3762110692987473 -0.8197495549479854 -0.7669907771220142
C 3.6849094217357914 -0.4081920137187023 0.5339472029050987
N 4.736117015635686 -1.013120743886544 1.231223271202512
C 2.801046930283606 0.4478123337558755 1.1995117575704626
C 1.6777188318064302 0.9630821883854279 0.5481822031295913
O 0.006419207894072122 2.6626522497479046 -1.3982107233522834
H -1.024237656985284 -1.468799126056797 -1.2568310068470887
H -2.949079166357248 -2.367100672497161 -0.009352631416464917
H -5.449979940068845 -0.30636068242496545 1.608192990330407
H -5.032978984669531 -1.8638248300577391 1.1186516546010559
H -4.013394969686876 1.6096023476551433 1.2424865408580856
H -2.092117869760431 2.5252155443796234 0.005737287080276141
H 2.050457088179088 -0.6275702716172729 -2.452187884254613
H 4.011882566916988 -1.5393834187743591 -1.2771944740172658
H 5.084109025034366 -0.4637722885523487 2.011113370076755
H 5.486384962173782 -1.3497940419024193 0.635477930804611
H 2.985125175077796 0.7247596058725045 2.2347047777692444
H 1.0201893195363374 1.6515343422448023 1.0735496802915885


--Link1--
%nprocshared=4
%mem=8GB
%Oldchk=MQJKPEGWNLWLTK-UHFFFAOYSA-N_conf_1_0.chk
%Chk=MQJKPEGWNLWLTK-UHFFFAOYSA-N_conf_1_1.chk
# freq B3LYP/6-31G** SCRF=(Solvent=water) volume NMR pop=NPA density=current Geom=AllCheck Guess=Read


--Link1--
%nprocshared=4
%mem=8GB
%Oldchk=MQJKPEGWNLWLTK-UHFFFAOYSA-N_conf_1_1.chk
%Chk=MQJKPEGWNLWLTK-UHFFFAOYSA-N_conf_1_2.chk
# TD(NStates=10, Root=1) B3LYP/6-31G** SCRF=(Solvent=water) volume pop=NPA density=current Geom=AllCheck Guess=Read



