%nprocshared=4
%mem=8GB
%Chk=MQJKPEGWNLWLTK-UHFFFAOYSA-N_conf_2_0.chk
# opt=CalcFc B3LYP/6-31G** SCRF=(Solvent=water) scf=xqc 

MQJKPEGWNLWLTK-UHFFFAOYSA-N_conf_2

0 1
O 0.288110583305249 1.2739640331885207 2.6835590113213676
S 0.2931171946810262 -0.008514740753981998 2.0030487428564547
C -1.2679687325646622 -0.13674689764770037 1.163211418872614
C -2.0453109232331292 -1.287250865958061 1.2998742212527419
C -3.263632822118921 -1.3743366803669104 0.6213444827179673
C -3.7319666036376375 -0.3062600811200739 -0.15130518635244844
N -4.890506320321424 -0.4516809973564072 -0.921895456461717
C -2.916284708503171 0.818457359144858 -0.31442157847769614
C -1.695982645049884 0.9204681425656132 0.35792873846634227
C 1.5471562068226103 0.04141326967112023 0.7446160040314989
C 2.318767875539003 1.1904582366450767 0.5688033567234055
C 3.2909864795055657 1.2147930196692218 -0.4344381168905583
C 3.5300239349622466 0.08824802061077755 -1.2287120436830263
N 4.417981918297587 0.16468764245976206 -2.307070175858513
C 2.713836046221267 -1.0366029852920822 -1.0690807958929085
C 1.738109248441175 -1.0762512444074244 -0.07008710923020108
O 0.5063302382191573 -1.2378937435288782 2.7453682778551536
H -1.7134610341429082 -2.1199689757598765 1.9157365019183556
H -3.849822637414909 -2.286341361451136 0.7043395428640549
H -5.5641729156401825 -1.1053001384803902 -0.5344416908193346
H -5.32128644871816 0.4280774351796796 -1.189407757608289
H -3.229891329968756 1.6300347968498534 -0.9664953694519484
H -1.0913881594026322 1.8167460884704538 0.24185275497445094
H 2.168141245371006 2.069392189248055 1.1913941847047804
H 3.866638956408944 2.124113044481398 -0.5894266631767677
H 5.167327865827763 0.8376070451784257 -2.1773620155030824
H 4.763564427964942 -0.736788831718397 -2.6217529464981517
H 2.836396216498824 -1.8968997044744904 -1.7225922773555642
H 1.1351868426503298 -1.972102217488069 0.05741194470081125


--Link1--
%nprocshared=4
%mem=8GB
%Oldchk=MQJKPEGWNLWLTK-UHFFFAOYSA-N_conf_2_0.chk
%Chk=MQJKPEGWNLWLTK-UHFFFAOYSA-N_conf_2_1.chk
# freq B3LYP/6-31G** SCRF=(Solvent=water) volume NMR pop=NPA density=current Geom=AllCheck Guess=Read


--Link1--
%nprocshared=4
%mem=8GB
%Oldchk=MQJKPEGWNLWLTK-UHFFFAOYSA-N_conf_2_1.chk
%Chk=MQJKPEGWNLWLTK-UHFFFAOYSA-N_conf_2_2.chk
# TD(NStates=10, Root=1) B3LYP/6-31G** SCRF=(Solvent=water) volume pop=NPA density=current Geom=AllCheck Guess=Read



