%nprocshared=7
%mem=14GB
%Chk=GDGWSSXWLLHGGV-SFHVURJKSA-N_conf_2_0.chk
# opt=CalcFc B3LYP/6-31G** SCRF=(Solvent=water) scf=xqc 

GDGWSSXWLLHGGV-SFHVURJKSA-N_conf_2

0 1
N -1.8727269221036373 3.297632466474442 -2.419609688979782
C -1.8446042118078867 2.291470742328488 -1.444005731748876
C -0.8279618859969936 1.3329510799084918 -1.4561914618954097
C -0.8686894737229559 0.27437291694468696 -0.5499482748957386
C -1.9443731372247965 0.1299196689972933 0.33193803288780227
C -1.8106018586801613 -1.1032720551348565 1.1892317141895017
C -2.00254499625593 -0.7914683092110112 2.6801805759661947
C -2.810140858927481 -2.1859423225732555 0.762352110734692
C -0.34154912454723824 -1.531792842530257 0.911192857085467
C 0.14376678184604755 -0.8505743647473082 -0.41027121620780727
C 1.5888847800443238 -0.35095458696427984 -0.23549556841206878
C 1.8698730656387927 0.7206489848341479 0.6347462075093954
C 3.175463021127728 1.189425734894999 0.82106992445605
C 4.250158563009227 0.574109685229857 0.1843687512893914
N 5.536321793127548 1.1167965856732858 0.27978342116978216
C 3.982157192917338 -0.4518753455821576 -0.7200019890264083
C 2.676452249543206 -0.9249067163755452 -0.9110883316661992
C -0.04582975903410837 -1.8073773920935663 -1.60616320697865
C -2.9937129436529237 1.0383678040944555 0.308449945509331
C -2.945055429431698 2.1064980327229117 -0.5934750230327586
H -2.4236071346053 4.106725532462107 -2.1520392410519507
H -0.950241178726776 3.554527081499993 -2.7578220831324423
H -0.004184311879430631 1.4118150628881396 -2.159593252194748
H -1.7898720466642897 -1.6736422394811876 3.294510183996798
H -3.02934982264292 -0.4754749434420504 2.8970342795864306
H -1.3384413605099124 0.015969413844418266 3.010873686639874
H -2.733361048146155 -2.4258640168231 -0.302220176835323
H -3.842988578668503 -1.8651464851991604 0.9426734338109488
H -2.647826648634199 -3.1121090254937216 1.325038437030672
H -0.23360891361989494 -2.623310621387269 0.86880735742831
H 0.28826960649140365 -1.219655383342801 1.7562407633839467
H 1.0639378502232757 1.217791140637298 1.1725665300328583
H 3.33937325240338 2.042191294836641 1.4740248460065377
H 6.275372144252969 0.45543811087785774 0.06443642858156588
H 5.704812725245231 1.614653188376782 1.1480885935335021
H 4.791272318754406 -0.9013106082512868 -1.2897480715728316
H 2.5406786917124955 -1.7439085866268915 -1.6116050400014028
H 0.5096537911645147 -2.741644149251325 -1.4656429644233775
H -1.0952832758446704 -2.0798996755078405 -1.7581824585165902
H 0.2954228758556022 -1.3496677133762447 -2.5429485153715823
H -3.853298970821362 0.9196799424693479 0.9606261772457513
H -3.7820168112082446 2.7988129134003934 -0.6321819621310174


--Link1--
%nprocshared=7
%mem=14GB
%Oldchk=GDGWSSXWLLHGGV-SFHVURJKSA-N_conf_2_0.chk
%Chk=GDGWSSXWLLHGGV-SFHVURJKSA-N_conf_2_1.chk
# freq B3LYP/6-31G** SCRF=(Solvent=water) volume NMR pop=NPA density=current Geom=AllCheck Guess=Read


--Link1--
%nprocshared=7
%mem=14GB
%Oldchk=GDGWSSXWLLHGGV-SFHVURJKSA-N_conf_2_1.chk
%Chk=GDGWSSXWLLHGGV-SFHVURJKSA-N_conf_2_2.chk
# TD(NStates=10, Root=1) B3LYP/6-31G** SCRF=(Solvent=water) volume pop=NPA density=current Geom=AllCheck Guess=Read



