%nprocshared=7
%mem=14GB
%Chk=GDGWSSXWLLHGGV-SFHVURJKSA-N_conf_0_0.chk
# opt=CalcFc B3LYP/6-31G** SCRF=(Solvent=water) scf=xqc 

GDGWSSXWLLHGGV-SFHVURJKSA-N_conf_0

0 1
N -1.3456763888324441 4.092913987894028 1.2221267673795133
C -1.5819083344007239 2.7561940877986357 0.8740502068177566
C -0.5722145433934795 1.8024452671129105 1.028470657580646
C -0.773646642855254 0.5039900883976082 0.5618509795958605
C -1.9645140954510976 0.15329717975132348 -0.08276753095736185
C -1.9880811746601827 -1.30335495886057 -0.47208808298175214
C -2.3893315725301347 -1.5072021446590123 -1.9399469796119668
C -2.9394268475821317 -2.098824875618903 0.4309181268456907
C -0.5050714352438996 -1.7171785028666833 -0.2558512522227876
C 0.18082699291792173 -0.6733274558592468 0.6835548065732414
C 1.600278946389961 -0.3770341851551717 0.16956661162989578
C 2.749619321289152 -0.8848913027336627 0.7943439326088251
C 4.029825654163457 -0.613120449582278 0.29225334665295366
C 4.20549500928093 0.19983115253880548 -0.8259963444527505
N 5.476681392546787 0.36960470870491774 -1.386262724882109
C 3.072122510170725 0.6481476215047516 -1.499444103269076
C 1.791419944523712 0.3799508657594791 -1.0024888754342691
C 0.14235166822106107 -1.1539886585442973 2.14964868143711
C -2.954953158683038 1.104154657578848 -0.2866518315397073
C -2.745953761090855 2.4089870195504988 0.17180971041743634
H -2.192622859373527 4.627068584181927 1.3863441499371367
H -0.666185026957531 4.203720020997495 1.9680062528173365
H 0.3674322221730316 2.0664435435358977 1.5046890626011586
H -1.765238778423577 -0.9087817409563399 -2.614264617452825
H -2.285227505859542 -2.558555582497951 -2.2310204548932506
H -3.4306764267173144 -1.2155201101064128 -2.1178139680865207
H -2.709712100677935 -1.9701558910233377 1.4927292077888739
H -3.9788842351155997 -1.7799410515118512 0.28914605899435447
H -2.8875401162479934 -3.17017120026793 0.206715312125334
H 0.0038703812979799207 -1.74282853994171 -1.2301151494518765
H -0.4162001136248933 -2.7384809283326956 0.13623758624481117
H 2.6827407794925633 -1.516495735670129 1.6754418060498366
H 4.892106281693717 -1.049246201096659 0.7896596378343204
H 5.55251306347166 1.1924381405368836 -1.9759901285872348
H 6.23087054486424 0.31000273039856213 -0.7098697459528449
H 3.169231324478832 1.2150420544790952 -2.4212724869831646
H 0.9357392977707181 0.7650277549360935 -1.555409418458063
H -0.8801992382775174 -1.2517429544207184 2.528913260341827
H 0.6192793885527739 -2.133568102363396 2.266678242586691
H 0.655921861437794 -0.44800799013918696 2.814054000454645
H -3.8774624061333123 0.8528532480708988 -0.8005000175504042
H -3.5075998226046057 3.16030584847867 -0.019861676070381733


--Link1--
%nprocshared=7
%mem=14GB
%Oldchk=GDGWSSXWLLHGGV-SFHVURJKSA-N_conf_0_0.chk
%Chk=GDGWSSXWLLHGGV-SFHVURJKSA-N_conf_0_1.chk
# freq B3LYP/6-31G** SCRF=(Solvent=water) volume NMR pop=NPA density=current Geom=AllCheck Guess=Read


--Link1--
%nprocshared=7
%mem=14GB
%Oldchk=GDGWSSXWLLHGGV-SFHVURJKSA-N_conf_0_1.chk
%Chk=GDGWSSXWLLHGGV-SFHVURJKSA-N_conf_0_2.chk
# TD(NStates=10, Root=1) B3LYP/6-31G** SCRF=(Solvent=water) volume pop=NPA density=current Geom=AllCheck Guess=Read



