%nprocshared=2
%mem=4GB
%Chk=KFIGICHILYTCJF-UHFFFAOYSA-N_conf_2_0.chk
# opt=CalcFc B3LYP/6-31G** SCRF=(Solvent=water) scf=xqc 

KFIGICHILYTCJF-UHFFFAOYSA-N_conf_2

0 1
C 2.1134634719707 0.2033976950473739 -0.004571267727004242
N 0.6994854235846444 0.3288772441624873 -0.33228854501287536
C -0.11342636111375053 -0.5724382596158737 0.5011011583574222
C -1.6077021719606146 -0.46179316494941147 0.13316966879410114
N -2.049794286877801 0.9359051604303981 0.06219845651584459
H 2.478353348293055 -0.8133983726186308 -0.18250003056048447
H 2.3032569744270215 0.47522489259853423 1.0387823078887484
H 2.6948670009145617 0.8847247315761347 -0.6333803521859205
H 0.559089176373078 0.08714055859809873 -1.3141239999613588
H 0.20769041999435578 -1.6129654421453858 0.37476539362070094
H 0.011129757193266 -0.3021434384642136 1.5567752358827107
H -2.216241967559382 -1.0049243824644967 0.863520347714582
H -1.7774396924463556 -0.9243317529120029 -0.8456593614659776
H -1.3207280949815932 1.4363904636315479 -0.45883418288605904
H -1.982002997811214 1.3403340671254302 0.9964765034232788


--Link1--
%nprocshared=2
%mem=4GB
%Oldchk=KFIGICHILYTCJF-UHFFFAOYSA-N_conf_2_0.chk
%Chk=KFIGICHILYTCJF-UHFFFAOYSA-N_conf_2_1.chk
# freq B3LYP/6-31G** SCRF=(Solvent=water) volume NMR pop=NPA density=current Geom=AllCheck Guess=Read


--Link1--
%nprocshared=2
%mem=4GB
%Oldchk=KFIGICHILYTCJF-UHFFFAOYSA-N_conf_2_1.chk
%Chk=KFIGICHILYTCJF-UHFFFAOYSA-N_conf_2_2.chk
# TD(NStates=10, Root=1) B3LYP/6-31G** SCRF=(Solvent=water) volume pop=NPA density=current Geom=AllCheck Guess=Read



