%nprocshared=3
%mem=6GB
%Chk=KVKFRMCSXWQSNT-UHFFFAOYSA-N_conf_1_0.chk
# opt=CalcFc B3LYP/6-31G** SCRF=(Solvent=water) scf=xqc 

KVKFRMCSXWQSNT-UHFFFAOYSA-N_conf_1

0 1
C -2.688632535298043 0.816146894827317 0.06828874878738585
N -1.2354112833806805 0.7510277740598102 -0.003518572236597141
C -0.7943547878019419 -0.5773199466848579 -0.46565353379257246
C 0.7463113658550662 -0.6569571227884043 -0.52930259201622
N 1.3308122951982229 -0.3664471346950521 0.7845088288496326
C 2.7520250236629895 -0.08240592118445154 0.6887435647258557
H -2.9920176140612753 1.8086802522094934 0.4154222995037927
H -3.1472438888343057 0.6472332114338231 -0.9114184115565581
H -3.0830627334661096 0.08385699271245789 0.7801135029686825
H -0.8964402923310353 1.4596281171355747 -0.6533078777401149
H -1.1648027636144171 -1.3512812609484426 0.21787646048045492
H -1.199413120757579 -0.7845107491277554 -1.4632774332870353
H 1.0457378878133174 -1.6590743207453902 -0.8556628739149862
H 1.1005344450238221 0.06302244252156768 -1.2780663023945684
H 0.8277556226582012 0.43721084030307067 1.1723876704785312
H 2.9454657049872486 0.8040222152679998 0.07592174039000968
H 3.297584998825644 -0.9334893351055441 0.26855306723528805
H 3.155151675520752 0.1067116646653458 1.688391713519007


--Link1--
%nprocshared=3
%mem=6GB
%Oldchk=KVKFRMCSXWQSNT-UHFFFAOYSA-N_conf_1_0.chk
%Chk=KVKFRMCSXWQSNT-UHFFFAOYSA-N_conf_1_1.chk
# freq B3LYP/6-31G** SCRF=(Solvent=water) volume NMR pop=NPA density=current Geom=AllCheck Guess=Read


--Link1--
%nprocshared=3
%mem=6GB
%Oldchk=KVKFRMCSXWQSNT-UHFFFAOYSA-N_conf_1_1.chk
%Chk=KVKFRMCSXWQSNT-UHFFFAOYSA-N_conf_1_2.chk
# TD(NStates=10, Root=1) B3LYP/6-31G** SCRF=(Solvent=water) volume pop=NPA density=current Geom=AllCheck Guess=Read



