%nprocshared=3
%mem=6GB
%Chk=KVKFRMCSXWQSNT-UHFFFAOYSA-N_conf_2_0.chk
# opt=CalcFc B3LYP/6-31G** SCRF=(Solvent=water) scf=xqc 

KVKFRMCSXWQSNT-UHFFFAOYSA-N_conf_2

0 1
C 2.535409903258696 0.042534578100185225 -0.3771038585904191
N 1.242722666020611 -0.6133176441137408 -0.47008151808933457
C 0.5416472161432558 -0.6115490814023783 0.81931275229436
C -0.9529949084190669 -0.9480062010554562 0.6198703587484679
N -1.6277584975970172 -0.09910506587828889 -0.38079502985977876
C -1.8526984496298442 1.2547062749786955 0.10929914283154506
H 3.0354538666920434 0.004195595244972322 -1.3497506143350284
H 3.1831247407673184 -0.4618728433873415 0.34716125520375907
H 2.4338217145647727 1.0952124460222397 -0.0936536694370783
H 0.6400993018394834 -0.12511683217749672 -1.1400361916190687
H 0.6243826111942417 0.36719708549960445 1.3066871036424812
H 0.9935114189593061 -1.3544866944020677 1.4860847680903955
H -1.0247811813237386 -1.9855412383627942 0.27009788216728203
H -1.4796033839352256 -0.9073044329578572 1.5808580230991782
H -2.529840413840554 -0.521885594158961 -0.6006486586226579
H -0.9116470101518664 1.784456667075551 0.28343627968005103
H -2.4437375337288194 1.2566424731194716 1.0308025601479451
H -2.4071120608133985 1.8232405078557505 -0.6441225797762017


--Link1--
%nprocshared=3
%mem=6GB
%Oldchk=KVKFRMCSXWQSNT-UHFFFAOYSA-N_conf_2_0.chk
%Chk=KVKFRMCSXWQSNT-UHFFFAOYSA-N_conf_2_1.chk
# freq B3LYP/6-31G** SCRF=(Solvent=water) volume NMR pop=NPA density=current Geom=AllCheck Guess=Read


--Link1--
%nprocshared=3
%mem=6GB
%Oldchk=KVKFRMCSXWQSNT-UHFFFAOYSA-N_conf_2_1.chk
%Chk=KVKFRMCSXWQSNT-UHFFFAOYSA-N_conf_2_2.chk
# TD(NStates=10, Root=1) B3LYP/6-31G** SCRF=(Solvent=water) volume pop=NPA density=current Geom=AllCheck Guess=Read



