%nprocshared=2
%mem=4GB
%Chk=GEYOCULIXLDCMW-UHFFFAOYSA-N_conf_0_0.chk
# opt=CalcFc B3LYP/6-31G** SCRF=(Solvent=water) scf=xqc 

GEYOCULIXLDCMW-UHFFFAOYSA-N_conf_0

0 1
N -2.1043387000419207 0.3745551625370652 -0.5395532069508272
C -0.6995123834700291 0.3198045721502206 -0.34585106253949444
C 0.0465302606066976 1.5001220290671 -0.27401835207539627
C 1.4008913152415894 1.4571838994172297 0.06254820635058395
C 2.0095466570410374 0.23758208092141142 0.35438541505907106
C 1.2611373824584113 -0.9402623151760174 0.32962546216767946
C -0.10213135673851712 -0.9019592963614009 0.029876595238114666
N -0.8333661545445517 -2.0987567394729996 -0.09112270021512042
H -2.5649245486336856 0.40063420603616273 0.36789442208491935
H -2.368163478557307 1.197524467242453 -1.074662875335701
H -0.4157711386239084 2.459456679809935 -0.48630874830205306
H 1.9816824305879217 2.375251303769444 0.09469136638942928
H 3.0680601599208996 0.20146233451877105 0.5978452268087263
H 1.7474641876640848 -1.8883864403737025 0.5393599699033913
H -1.8288042276037277 -1.894243332178779 -0.16447968829405205
H -0.5983004053070787 -2.799968611906954 0.5997699697107517


--Link1--
%nprocshared=2
%mem=4GB
%Oldchk=GEYOCULIXLDCMW-UHFFFAOYSA-N_conf_0_0.chk
%Chk=GEYOCULIXLDCMW-UHFFFAOYSA-N_conf_0_1.chk
# freq B3LYP/6-31G** SCRF=(Solvent=water) volume NMR pop=NPA density=current Geom=AllCheck Guess=Read


--Link1--
%nprocshared=2
%mem=4GB
%Oldchk=GEYOCULIXLDCMW-UHFFFAOYSA-N_conf_0_1.chk
%Chk=GEYOCULIXLDCMW-UHFFFAOYSA-N_conf_0_2.chk
# TD(NStates=10, Root=1) B3LYP/6-31G** SCRF=(Solvent=water) volume pop=NPA density=current Geom=AllCheck Guess=Read



