%nprocshared=3
%mem=6GB
%Chk=ISKQADXMHQSTHK-UHFFFAOYSA-N_conf_0_0.chk
# opt=CalcFc B3LYP/6-31G** SCRF=(Solvent=water) scf=xqc 

ISKQADXMHQSTHK-UHFFFAOYSA-N_conf_0

0 1
N 3.6186186013897848 -0.09126228094788652 -0.49434881252899876
C 2.7612334400767593 -0.2272693443899868 0.6770870581383415
C 1.3052922146907426 -0.07877897580787847 0.3165847208287233
C 0.6871569299619481 -1.003594057750868 -0.5364903861609672
C -0.6630446043972158 -0.8747776644143588 -0.8701799901276266
C -1.422555142895552 0.18673457477312083 -0.3618048041404486
C -2.8851708212110885 0.31200783314132524 -0.7001673411173482
N -3.7128544607251524 -0.41528029719465054 0.25539046483668915
C -0.8084615168598325 1.1073837497020491 0.4977676188435986
C 0.5429421363081997 0.9782278718858642 0.8304388203534011
H 3.4318255006509046 0.8094802162346151 -0.9329277703182387
H 4.591119330427522 -0.07136682544754401 -0.19553708827549343
H 2.918786631813473 -1.208152900601462 1.1396596777915249
H 3.048707857190084 0.525170098073901 1.4204233969709759
H 1.2660181259505574 -1.827169687815287 -0.9506767369315551
H -1.1171618871475593 -1.6071071707643383 -1.5339833332736803
H -3.1796592735246283 1.3677149872020706 -0.7112371726868864
H -3.071556069875632 -0.06805080319787753 -1.7112030207534752
H -3.416775000723788 -1.3907663973807474 0.26139971791487676
H -3.508130645110058 -0.06744446186951081 1.191285104717158
H -1.3811092889932521 1.934122754665664 0.9126376974923436
H 0.9947779430037736 1.7101787819037173 1.4958821784271794


--Link1--
%nprocshared=3
%mem=6GB
%Oldchk=ISKQADXMHQSTHK-UHFFFAOYSA-N_conf_0_0.chk
%Chk=ISKQADXMHQSTHK-UHFFFAOYSA-N_conf_0_1.chk
# freq B3LYP/6-31G** SCRF=(Solvent=water) volume NMR pop=NPA density=current Geom=AllCheck Guess=Read


--Link1--
%nprocshared=3
%mem=6GB
%Oldchk=ISKQADXMHQSTHK-UHFFFAOYSA-N_conf_0_1.chk
%Chk=ISKQADXMHQSTHK-UHFFFAOYSA-N_conf_0_2.chk
# TD(NStates=10, Root=1) B3LYP/6-31G** SCRF=(Solvent=water) volume pop=NPA density=current Geom=AllCheck Guess=Read



