%nprocshared=3
%mem=6GB
%Chk=ISKQADXMHQSTHK-UHFFFAOYSA-N_conf_2_0.chk
# opt=CalcFc B3LYP/6-31G** SCRF=(Solvent=water) scf=xqc 

ISKQADXMHQSTHK-UHFFFAOYSA-N_conf_2

0 1
N -3.26166329943738 1.3173312495213212 0.3738051258949488
C -2.873119592700449 -0.02854846955851719 -0.029948109722084018
C -1.375714089535655 -0.19734563115467446 -0.013582489566675729
C -0.6625371412225397 -0.3979181691321815 -1.2025135753813083
C 0.7259067708014887 -0.5568068436744329 -1.18007853336296
C 1.4281653624808275 -0.5229322818756352 0.032089858914825624
C 2.9277497400481427 -0.6653890016528733 0.053059000304364966
N 3.5837016232654615 0.6314927399979873 -0.0686771466650302
C 0.7172323493353919 -0.3094329559175239 1.2200501834580557
C -0.6703078506371614 -0.15108928438535893 1.1968204664314086
H -4.263356628928647 1.4308986194006281 0.23531442910869704
H -2.8058925783485305 1.9881530659055398 -0.24309208725548678
H -3.326118057821784 -0.763145207510397 0.6454819818567231
H -3.268913679951623 -0.23266257898534398 -1.0315004221582191
H -1.182398916413891 -0.4311837212751305 -2.157143276337002
H 1.2586280279063837 -0.7078715202493175 -2.116516478599154
H 3.2464409611265737 -1.1523098446302618 0.9818902525881883
H 3.2549372231617046 -1.3197379956526347 -0.7631106425060535
H 3.257467923905957 1.229963635373292 0.6895707470539176
H 3.256099564857066 1.0806688217414584 -0.9229608785375327
H 1.2402429985927579 -0.26240584426279684 2.172633982013995
H -1.2065507104840814 0.020271217976911168 2.1284076124663325


--Link1--
%nprocshared=3
%mem=6GB
%Oldchk=ISKQADXMHQSTHK-UHFFFAOYSA-N_conf_2_0.chk
%Chk=ISKQADXMHQSTHK-UHFFFAOYSA-N_conf_2_1.chk
# freq B3LYP/6-31G** SCRF=(Solvent=water) volume NMR pop=NPA density=current Geom=AllCheck Guess=Read


--Link1--
%nprocshared=3
%mem=6GB
%Oldchk=ISKQADXMHQSTHK-UHFFFAOYSA-N_conf_2_1.chk
%Chk=ISKQADXMHQSTHK-UHFFFAOYSA-N_conf_2_2.chk
# TD(NStates=10, Root=1) B3LYP/6-31G** SCRF=(Solvent=water) volume pop=NPA density=current Geom=AllCheck Guess=Read



