%nprocshared=4
%mem=8GB
%Chk=NFCPRRWCTNLGSN-UHFFFAOYSA-N_conf_0_0.chk
# opt=CalcFc B3LYP/6-31G** SCRF=(Solvent=water) scf=xqc 

NFCPRRWCTNLGSN-UHFFFAOYSA-N_conf_0

0 1
N -1.930828356103696 -1.8301875753711712 1.8164075288508936
C -2.1516456230230965 -1.0376777821512366 0.6637010403790482
C -3.445629135110417 -0.9018501015537204 0.15175719018346998
C -3.6879483214641215 -0.06549399441735684 -0.9378744038280774
C -2.6458423577732173 0.6723629242280329 -1.4937899391992484
C -1.3631221311609176 0.5960646836651253 -0.9459203712509837
C -1.1063746659100493 -0.22900800484528455 0.15490123410447038
N 0.161836350382917 -0.30883367801956363 0.7862969665888799
C 1.4254965684105028 0.13026362964077243 0.35458878811528255
C 2.3107662353544045 0.7065293307966118 1.2756834749412407
C 3.5753878287821887 1.1491768252372743 0.8771735300733657
C 3.975314951944078 1.0129642912049033 -0.4496329682296213
C 3.1132344767848226 0.43034304196840917 -1.3748360881556339
C 1.8490503651758075 -0.009534152097856805 -0.9725046862789489
H -0.9742622133649329 -2.1826071180309508 1.8111649010069273
H -2.600804101623049 -2.5892878678821822 1.895226752924029
H -4.270721860014669 -1.4558492940805965 0.5898035542897405
H -4.691916931043356 0.01842007090791249 -1.345350165008183
H -2.8347589652185214 1.331042326316068 -2.3375050869498017
H -0.582748933439178 1.2273715880181448 -1.359674699088603
H 0.02694111777038968 -0.2677395753950826 1.7941454962457037
H 2.0182711196538845 0.8266065094596717 2.31551073259549
H 4.2458477628566 1.6000105384406222 1.6039549738085401
H 4.958689795873779 1.3549426916466296 -0.7609279762354921
H 3.4238421405148736 0.30999415993505686 -2.4091713304411626
H 1.2019248817449313 -0.48802346762020077 -1.7031284494413967


--Link1--
%nprocshared=4
%mem=8GB
%Oldchk=NFCPRRWCTNLGSN-UHFFFAOYSA-N_conf_0_0.chk
%Chk=NFCPRRWCTNLGSN-UHFFFAOYSA-N_conf_0_1.chk
# freq B3LYP/6-31G** SCRF=(Solvent=water) volume NMR pop=NPA density=current Geom=AllCheck Guess=Read


--Link1--
%nprocshared=4
%mem=8GB
%Oldchk=NFCPRRWCTNLGSN-UHFFFAOYSA-N_conf_0_1.chk
%Chk=NFCPRRWCTNLGSN-UHFFFAOYSA-N_conf_0_2.chk
# TD(NStates=10, Root=1) B3LYP/6-31G** SCRF=(Solvent=water) volume pop=NPA density=current Geom=AllCheck Guess=Read



