%nprocshared=5
%mem=10GB
%Chk=NKYXYJFTTIPZDE-UHFFFAOYSA-N_conf_1_0.chk
# opt=CalcFc B3LYP/6-31G** SCRF=(Solvent=water) scf=xqc 

NKYXYJFTTIPZDE-UHFFFAOYSA-N_conf_1

0 1
N -4.665851257645768 0.26742561652464497 -2.1243805573749013
C -3.4833946199157375 0.17411285927108627 -1.3858916410960234
C -2.409919866809773 -0.5754525636065289 -1.868761343513039
C -1.2700430968650767 -0.7748971615946783 -1.087493372120087
C -1.2083094489210677 -0.24438840341101487 0.20389352084276985
O -0.11156481468813348 -0.46137755432012195 1.0095511232673324
C 1.1184477471389964 -0.11777627419134244 0.49185865896134634
C 1.3560297756116442 1.1626349938579874 -0.015620092349918381
C 2.622050778270311 1.4957442920154564 -0.5008889188338674
C 3.6748112173967997 0.582273940802274 -0.43236917810282083
N 4.903136864361772 0.8767915342934356 -1.0305553228807993
C 3.416792024297389 -0.705883353387468 0.04480486111911722
C 2.1488082727635534 -1.0631815231512227 0.5394905904875642
C 1.897103339356456 -2.4442594032457676 1.0775374889575775
F 3.0105146277275354 -3.2344075019332044 1.0721669761429151
F 1.4590375304119827 -2.4467727161903943 2.3664658585520484
F 0.9659472716829637 -3.1285673534902068 0.35527615485441
C -2.3042187967092387 0.4400246650935016 0.7403274530025863
C -2.2653601327042527 0.9630178863305439 2.1490967676268213
F -3.4091885147629766 1.613439936218817 2.5133097917725746
F -2.0898319064479636 -0.01279969214087569 3.0814873542614043
F -1.2624463066294584 1.865191460088258 2.346193782597259
C -3.4421160426483177 0.6306905240825983 -0.06544461357425614
H -4.537581383873294 0.19356415840413244 -3.1290317316873955
H -5.262381084103283 1.0481727496646884 -1.868709255068379
H -2.4535375307576843 -1.0197033868998053 -2.8600614354758735
H -0.44889254706854276 -1.3650091195821696 -1.4861177298488815
H 0.5645276308870948 1.906866569103112 -0.04092557521429994
H 2.780433931679953 2.483286419622974 -0.9268659533426091
H 5.682124750766863 0.32788101636303973 -0.6794805130586837
H 5.120054732478768 1.8683460638945628 -1.0668783099505235
H 4.215519584280793 -1.4463019769865828 0.03644220680319766
H -4.310702728561891 1.141313298499905 0.34817023251670015


--Link1--
%nprocshared=5
%mem=10GB
%Oldchk=NKYXYJFTTIPZDE-UHFFFAOYSA-N_conf_1_0.chk
%Chk=NKYXYJFTTIPZDE-UHFFFAOYSA-N_conf_1_1.chk
# freq B3LYP/6-31G** SCRF=(Solvent=water) volume NMR pop=NPA density=current Geom=AllCheck Guess=Read


--Link1--
%nprocshared=5
%mem=10GB
%Oldchk=NKYXYJFTTIPZDE-UHFFFAOYSA-N_conf_1_1.chk
%Chk=NKYXYJFTTIPZDE-UHFFFAOYSA-N_conf_1_2.chk
# TD(NStates=10, Root=1) B3LYP/6-31G** SCRF=(Solvent=water) volume pop=NPA density=current Geom=AllCheck Guess=Read



