%nprocshared=5
%mem=10GB
%Chk=NKYXYJFTTIPZDE-UHFFFAOYSA-N_conf_0_0.chk
# opt=CalcFc B3LYP/6-31G** SCRF=(Solvent=water) scf=xqc 

NKYXYJFTTIPZDE-UHFFFAOYSA-N_conf_0

0 1
N 4.88376241459724 0.894383944021045 1.194009239835524
C 3.6153855295221287 0.48686938593550644 0.7727855309716753
C 2.524060638934899 0.5781830555779898 1.6376750639664241
C 1.2785029857439836 0.06423044975527045 1.2717304054543015
C 1.1228974260938533 -0.5748405977635674 0.03872370022243658
O -0.08557491565957034 -1.1260250286063278 -0.3284397123492545
C -1.1858021664822291 -0.2973366255033556 -0.2863195851996038
C -1.1906025599189798 0.9307752790585181 -0.9535166737446513
C -2.3316922841977528 1.7347259179999066 -0.9246571905701099
C -3.4934036637337247 1.30085936496001 -0.2846459359380317
N -4.588122707543606 2.159759809477309 -0.1533773628281222
C -3.4656709300199164 0.08727550359525085 0.40821962942338896
C -2.3269511048312173 -0.7392918027707023 0.3920299533787018
C -2.325079266751489 -2.0560538774038477 1.1175350901960126
F -1.4059936830041972 -2.1015712152568993 2.1226214137697084
F -2.05737808510221 -3.115819231856309 0.3060689691898637
F -3.521236120142607 -2.345840458318449 1.708535080211114
C 2.2211379066608634 -0.7515874106783281 -0.8097034494311885
C 2.0722342811890178 -1.48866921360418 -2.111318231493808
F 3.234992001002244 -1.5643457745880645 -2.822873446445244
F 1.1769524253390382 -0.8950814463839141 -2.950797255707039
F 1.6562201307799649 -2.775378122918327 -1.9573881029167703
C 3.4667133630824143 -0.22413389856221805 -0.42141663497226367
H 4.875018132885354 1.6348279501263008 1.8889186485360279
H 5.538681023342263 1.0807588510049166 0.44093095736297105
H 2.635037142781878 1.0463013320938173 2.61260443266404
H 0.4452389296497001 0.14587359318133036 1.964855056167867
H -0.31310713229050746 1.272935778803423 -1.4956628585288216
H -2.30657781176547 2.703750737533509 -1.416735542421636
H -4.669291112775712 2.8456425585027008 -0.8980435675513914
H -5.469330014122329 1.6897608488515599 0.030884308149189903
H -4.345532603164011 -0.22562170413811136 0.9687508497139723
H 4.3345118299008 -0.37531795212564 -1.061982779114912


--Link1--
%nprocshared=5
%mem=10GB
%Oldchk=NKYXYJFTTIPZDE-UHFFFAOYSA-N_conf_0_0.chk
%Chk=NKYXYJFTTIPZDE-UHFFFAOYSA-N_conf_0_1.chk
# freq B3LYP/6-31G** SCRF=(Solvent=water) volume NMR pop=NPA density=current Geom=AllCheck Guess=Read


--Link1--
%nprocshared=5
%mem=10GB
%Oldchk=NKYXYJFTTIPZDE-UHFFFAOYSA-N_conf_0_1.chk
%Chk=NKYXYJFTTIPZDE-UHFFFAOYSA-N_conf_0_2.chk
# TD(NStates=10, Root=1) B3LYP/6-31G** SCRF=(Solvent=water) volume pop=NPA density=current Geom=AllCheck Guess=Read



