%nprocshared=4
%mem=8GB
%Chk=PWSKHLMYTZNYKO-UHFFFAOYSA-N_conf_4_0.chk
# opt=CalcFc B3LYP/6-31G** SCRF=(Solvent=water) scf=xqc 

PWSKHLMYTZNYKO-UHFFFAOYSA-N_conf_4

0 1
N -4.133362917114081 0.9550636743443666 0.4569461361586505
C -3.8211133217293813 0.15529163834680193 -0.7215861102014915
C -2.5492348610424287 -0.6809268340650931 -0.560416003796458
C -1.2783400872239488 0.16236724454982357 -0.42250366646127846
C -0.030494028067411087 -0.7221329038363293 -0.36716218844628784
C 1.2417628767830642 0.11744985097369112 -0.22862168469072436
C 2.487723334465904 -0.7712991809541277 -0.1689684082445272
C 3.798893957292941 0.016314184735801172 -0.13039805768738974
N 3.9413956372469303 0.7953873469783218 1.0935948671128939
H -4.153656558046813 0.3558059882991419 1.2813661040871993
H -3.393061642205955 1.635065091191322 0.6217521962598437
H -4.665486054926138 -0.5149825638755404 -0.916175375562604
H -3.73164871868138 0.8155363443738178 -1.5911253873547377
H -2.454606669132963 -1.3305526769122957 -1.439599508228191
H -2.6490121608743395 -1.3433438796090205 0.30869777421883604
H -1.3268978986219855 0.7710359957587734 0.4875930084083705
H -1.2014880863790929 0.8519496375807445 -1.2718024764026004
H -0.10816733671945304 -1.4137847778334671 0.4805548033531813
H 0.028787523443144905 -1.3309991059569632 -1.2775105704282026
H 1.1708498725992695 0.7287776914095567 0.6782260616015269
H 1.321699022692135 0.8049272505935179 -1.0793451599851518
H 2.427766473873689 -1.432505295876602 0.7048233635118187
H 2.506295759011514 -1.4215100674944876 -1.0526352808922066
H 3.8669214495189683 0.6808576024548404 -0.9987904372635666
H 4.6358081812521865 -0.6877536854120121 -0.19287845889360083
H 3.230326159748488 1.5242210350398004 1.1255304204367835
H 4.838340092837208 1.2797403951955935 1.0811756592867607


--Link1--
%nprocshared=4
%mem=8GB
%Oldchk=PWSKHLMYTZNYKO-UHFFFAOYSA-N_conf_4_0.chk
%Chk=PWSKHLMYTZNYKO-UHFFFAOYSA-N_conf_4_1.chk
# freq B3LYP/6-31G** SCRF=(Solvent=water) volume NMR pop=NPA density=current Geom=AllCheck Guess=Read


--Link1--
%nprocshared=4
%mem=8GB
%Oldchk=PWSKHLMYTZNYKO-UHFFFAOYSA-N_conf_4_1.chk
%Chk=PWSKHLMYTZNYKO-UHFFFAOYSA-N_conf_4_2.chk
# TD(NStates=10, Root=1) B3LYP/6-31G** SCRF=(Solvent=water) volume pop=NPA density=current Geom=AllCheck Guess=Read



