%nprocshared=4
%mem=8GB
%Chk=PWSKHLMYTZNYKO-UHFFFAOYSA-N_conf_0_0.chk
# opt=CalcFc B3LYP/6-31G** SCRF=(Solvent=water) scf=xqc 

PWSKHLMYTZNYKO-UHFFFAOYSA-N_conf_0

0 1
N 4.506821617255083 0.44887550996057385 0.540352259350343
C 3.053928983709434 0.32088454459380644 0.6024798486504366
C 2.474216695549915 0.0008179419203488364 -0.7757434494631372
C 0.9600306125523628 -0.23585221014970598 -0.7544725026510456
C 0.15812991901980006 1.0110781446420372 -0.3722122805872469
C -1.3521819547971292 0.8439888778383793 -0.5693674707477712
C -1.9727039666662454 -0.20909231775754203 0.35235488149083516
C -3.492345005825229 -0.25233176791750467 0.19311435638799393
N -4.063599491636433 -1.269966645150086 1.067157908085641
H 4.757049052288244 1.169391381436243 -0.13604677313499378
H 4.910234526803334 -0.4179138838304218 0.18624667933294792
H 2.7972376185347962 -0.46951025969463567 1.3158114058744697
H 2.642363180055627 1.2583817014450138 0.9885494974106356
H 2.953404484000506 -0.9049392488991373 -1.169338692497948
H 2.7077040870257982 0.8107669891931369 -1.4782642131747894
H 0.7362852967374764 -1.05604820535863 -0.06293424158032182
H 0.6523329120152604 -0.5685106029125693 -1.7534550637444304
H 0.3546265184012281 1.2815894340960372 0.6714262917366713
H 0.49143983717646805 1.8553683777956498 -0.9881373239554726
H -1.8303488266168038 1.8130588914972332 -0.37951881216608985
H -1.560468185068082 0.5894139128647287 -1.6157226429269778
H -1.5568959065191288 -1.1973296795597692 0.12338093658955479
H -1.7142562318825547 0.019203043231403056 1.3939892949891446
H -3.755744679498056 -0.48416976120854216 -0.8444106444997317
H -3.9277078039734876 0.7225462325328567 0.43859241076321126
H -3.850024742326146 -1.0478523783480092 2.038770578552407
H -5.0795285463164825 -1.252493304883831 0.9873977619157434


--Link1--
%nprocshared=4
%mem=8GB
%Oldchk=PWSKHLMYTZNYKO-UHFFFAOYSA-N_conf_0_0.chk
%Chk=PWSKHLMYTZNYKO-UHFFFAOYSA-N_conf_0_1.chk
# freq B3LYP/6-31G** SCRF=(Solvent=water) volume NMR pop=NPA density=current Geom=AllCheck Guess=Read


--Link1--
%nprocshared=4
%mem=8GB
%Oldchk=PWSKHLMYTZNYKO-UHFFFAOYSA-N_conf_0_1.chk
%Chk=PWSKHLMYTZNYKO-UHFFFAOYSA-N_conf_0_2.chk
# TD(NStates=10, Root=1) B3LYP/6-31G** SCRF=(Solvent=water) volume pop=NPA density=current Geom=AllCheck Guess=Read



