%nprocshared=4
%mem=8GB
%Chk=BEPGHZIEOVULBU-UHFFFAOYSA-N_conf_0_0.chk
# opt=CalcFc B3LYP/6-31G** SCRF=(Solvent=water) scf=xqc 

BEPGHZIEOVULBU-UHFFFAOYSA-N_conf_0

0 1
C 3.7169038026794983 -0.21938135080043075 -1.661573033335103
C 3.3640129997223642 0.7708546973764798 -0.5603327820542926
N 1.9264241398537396 0.9944433052560376 -0.42104813779325134
C 1.2340094083376631 -0.11857595645262368 0.2276911508316885
C -0.2535452988792711 0.2139094978557948 0.3835991115994822
C -0.9968768619182798 -0.9381569167255714 1.066371701180683
N -2.4083227602114414 -0.6550150457695484 1.3486041758799276
C -3.2336378293871717 -0.5292223603374132 0.14667656320313302
C -3.617815930045705 0.9226255795176506 -0.0935221513918916
H 3.359861988948124 -1.2275444897299153 -1.4309938110824194
H 3.289050312715574 0.08738414837979595 -2.621822153619843
H 4.803980538134041 -0.2723345323146671 -1.7816130380712767
H 3.8263564804835024 1.733974266448088 -0.8051219868664033
H 3.803375616107034 0.4539372126498419 0.39264136524286636
H 1.511489083895001 1.1806523283941823 -1.3334070176810258
H 1.3354488732456347 -1.035445872569461 -0.36329957961803105
H 1.6690137603669075 -0.30189071188638045 1.217249854391952
H -0.3682635143881115 1.1303810310436198 0.9764358932400555
H -0.6836674703115696 0.4064847999527293 -0.6064218884211225
H -0.5096875505438389 -1.1446201263297056 2.0271047506853144
H -0.9093705934657351 -1.8562915734547762 0.47227456521880723
H -2.774521561839733 -1.4215553862703125 1.9143190051492416
H -2.753078463529726 -0.956150118659021 -0.7411950035606117
H -4.156175553265571 -1.1021323298418344 0.29977337716175895
H -2.7425894915959477 1.5529034127958432 -0.2756652654520964
H -4.160325942636327 1.3335249181932143 0.7648628778728443
H -4.272048182470261 0.9972415732786186 -0.9682668336980595


--Link1--
%nprocshared=4
%mem=8GB
%Oldchk=BEPGHZIEOVULBU-UHFFFAOYSA-N_conf_0_0.chk
%Chk=BEPGHZIEOVULBU-UHFFFAOYSA-N_conf_0_1.chk
# freq B3LYP/6-31G** SCRF=(Solvent=water) volume NMR pop=NPA density=current Geom=AllCheck Guess=Read


--Link1--
%nprocshared=4
%mem=8GB
%Oldchk=BEPGHZIEOVULBU-UHFFFAOYSA-N_conf_0_1.chk
%Chk=BEPGHZIEOVULBU-UHFFFAOYSA-N_conf_0_2.chk
# TD(NStates=10, Root=1) B3LYP/6-31G** SCRF=(Solvent=water) volume pop=NPA density=current Geom=AllCheck Guess=Read



