%nprocshared=4
%mem=8GB
%Chk=BEPGHZIEOVULBU-UHFFFAOYSA-N_conf_2_0.chk
# opt=CalcFc B3LYP/6-31G** SCRF=(Solvent=water) scf=xqc 

BEPGHZIEOVULBU-UHFFFAOYSA-N_conf_2

0 1
C -3.082200512256509 0.9645694315789778 -1.1708625208811019
C -1.7082106587437953 1.1119420679346974 -0.5312451772022815
N -1.5756724886359512 0.3898621213225862 0.7362095905251187
C -1.452945287281901 -1.064116775556752 0.59023048820495
C -0.097272274580981 -1.5520499801090357 0.05773381099510095
C 1.0894076006189404 -1.278329835487177 0.9944975253130508
N 1.3802335295473496 0.13997550463355093 1.2163265399501695
C 2.102631560970934 0.7766193182443492 0.11604421035784772
C 3.5788311331054086 0.40606298591074713 0.09473495584053636
H -3.8761535814565486 1.259880963481588 -0.4768564835043349
H -3.271882734530931 -0.06261250374797635 -1.4957756902692332
H -3.1537130924798396 1.6091953742376512 -2.0531230058893106
H -0.9270752754399706 0.8267408289282852 -1.2427039269445777
H -1.5460211830635904 2.174815157850663 -0.31751826760476887
H -2.3917071184176555 0.5933674017278466 1.3156521968627886
H -2.258161020353066 -1.4616936245428493 -0.03706409792396627
H -1.6042630847955566 -1.5079173224868572 1.5821240583479175
H -0.168069774342698 -2.6399087574218325 -0.0726441713610664
H 0.09757008295993821 -1.1478621284274324 -0.9411665667036265
H 0.862294008287289 -1.7207317609143111 1.972105216724381
H 1.9743044415253295 -1.8114056980424236 0.630913076183116
H 0.4688517478085511 0.6106344056270592 1.3120291202542442
H 2.032907038809691 1.8616152157144576 0.25739887598429806
H 1.641319791649254 0.5619572917287141 -0.8534665073974861
H 4.053295494602464 0.6186413891187502 1.0586707147011722
H 4.099377605035733 0.9922170936243007 -0.6698390930987967
H 3.7323240514574363 -0.6514681649276479 -0.1390995484025564


--Link1--
%nprocshared=4
%mem=8GB
%Oldchk=BEPGHZIEOVULBU-UHFFFAOYSA-N_conf_2_0.chk
%Chk=BEPGHZIEOVULBU-UHFFFAOYSA-N_conf_2_1.chk
# freq B3LYP/6-31G** SCRF=(Solvent=water) volume NMR pop=NPA density=current Geom=AllCheck Guess=Read


--Link1--
%nprocshared=4
%mem=8GB
%Oldchk=BEPGHZIEOVULBU-UHFFFAOYSA-N_conf_2_1.chk
%Chk=BEPGHZIEOVULBU-UHFFFAOYSA-N_conf_2_2.chk
# TD(NStates=10, Root=1) B3LYP/6-31G** SCRF=(Solvent=water) volume pop=NPA density=current Geom=AllCheck Guess=Read



