%nprocshared=2
%mem=4GB
%Chk=CBCKQZAAMUWICA-UHFFFAOYSA-N_conf_0_0.chk
# opt=CalcFc B3LYP/6-31G** SCRF=(Solvent=water) scf=xqc 

CBCKQZAAMUWICA-UHFFFAOYSA-N_conf_0

0 1
N -2.7496176181787946 -0.2067495968371714 -0.5386343814237998
C -1.3876092551724877 -0.14106034276321386 -0.22456200938579982
C -0.8952754201149788 0.8986261138665071 0.5646841438307976
C 0.47961071142861117 1.0376926663943151 0.7880891564271205
C 1.3874619570928397 0.13963183526691283 0.22635792740418148
N 2.764485861709553 0.35098666423674413 0.35735084003157896
C 0.902966153001863 -0.8240148021684776 -0.6584574175639686
C -0.4719198622762056 -0.9630806292092067 -0.8818623834523991
H -3.0551483508397563 -1.1262647086688877 -0.8407661652600008
H -3.3531781303927546 0.18431083938905687 0.17755547250662942
H -1.575859416104464 1.6215569298533499 1.0055080665159184
H 0.8328185474067284 1.8651876576034772 1.3968951599136228
H 3.322575981986411 -0.48117856655265145 0.19555554480350457
H 3.024550602428624 0.8294024516785053 1.2138704932939148
H 1.5914081542257665 -1.4707076466170081 -1.1950994279465073
H -0.8172699162010537 -1.7143388654722778 -1.5864850196943288


--Link1--
%nprocshared=2
%mem=4GB
%Oldchk=CBCKQZAAMUWICA-UHFFFAOYSA-N_conf_0_0.chk
%Chk=CBCKQZAAMUWICA-UHFFFAOYSA-N_conf_0_1.chk
# freq B3LYP/6-31G** SCRF=(Solvent=water) volume NMR pop=NPA density=current Geom=AllCheck Guess=Read


--Link1--
%nprocshared=2
%mem=4GB
%Oldchk=CBCKQZAAMUWICA-UHFFFAOYSA-N_conf_0_1.chk
%Chk=CBCKQZAAMUWICA-UHFFFAOYSA-N_conf_0_2.chk
# TD(NStates=10, Root=1) B3LYP/6-31G** SCRF=(Solvent=water) volume pop=NPA density=current Geom=AllCheck Guess=Read



