%nprocshared=3
%mem=6GB
%Chk=AGAHETWGCFCMDK-UHFFFAOYSA-N_conf_0_0.chk
# opt=CalcFc B3LYP/6-31G** SCRF=(Solvent=water) scf=xqc 

AGAHETWGCFCMDK-UHFFFAOYSA-N_conf_0

0 1
N 2.958909930220558 0.971967285732144 -0.08568687153333314
C 1.5744211805536983 0.715778914618835 -0.20930334042603566
C 0.7501637787670381 1.6151411913048068 -0.8842299981328513
C -0.6218542657015059 1.3726591785527966 -0.9760055788671136
C -1.1876280792145864 0.24517312474505037 -0.3768238709364986
O -2.534123774813026 0.1084275333368502 -0.578463638176487
C -3.1521523097794346 -1.048020631476132 -0.028495409759347622
C -0.375323236870175 -0.6163804240192375 0.36316118124040436
C 0.9882786504461094 -0.3392703660931452 0.5207123286255063
N 1.8162958199291952 -1.23123430519971 1.2451267625220257
H 3.3155327313043896 1.5276644488280668 -0.857234771621413
H 3.4595863799877486 0.08747241933709729 -0.01460659558079116
H 1.1677684811609275 2.4941610633914264 -1.3655724964241127
H -1.2537157799705043 2.0621508965347335 -1.5303550941553
H -3.0867864211534792 -1.0474693687219465 1.064523444503075
H -2.7250767970982572 -1.963768606523294 -0.4506278578303999
H -4.21235131024031 -1.0205054515804468 -0.29807507904594727
H -0.7834584512335644 -1.4952252578502325 0.847863366641676
H 2.5957127620996565 -0.7105585088030878 1.6456788482861857
H 1.305800711605158 -1.7281631361145837 1.9684146706706969


--Link1--
%nprocshared=3
%mem=6GB
%Oldchk=AGAHETWGCFCMDK-UHFFFAOYSA-N_conf_0_0.chk
%Chk=AGAHETWGCFCMDK-UHFFFAOYSA-N_conf_0_1.chk
# freq B3LYP/6-31G** SCRF=(Solvent=water) volume NMR pop=NPA density=current Geom=AllCheck Guess=Read


--Link1--
%nprocshared=3
%mem=6GB
%Oldchk=AGAHETWGCFCMDK-UHFFFAOYSA-N_conf_0_1.chk
%Chk=AGAHETWGCFCMDK-UHFFFAOYSA-N_conf_0_2.chk
# TD(NStates=10, Root=1) B3LYP/6-31G** SCRF=(Solvent=water) volume pop=NPA density=current Geom=AllCheck Guess=Read



