%nprocshared=3
%mem=6GB
%Chk=IUNMPGNGSSIWFP-UHFFFAOYSA-N_conf_2_0.chk
# opt=CalcFc B3LYP/6-31G** SCRF=(Solvent=water) scf=xqc 

IUNMPGNGSSIWFP-UHFFFAOYSA-N_conf_2

0 1
N 2.4778558844216825 0.9050739230082979 -0.25733469617434485
C 2.0064316128554833 -0.3028091187309796 0.4168042673067457
C 0.9736869568987577 -1.0594556960567574 -0.4148919304838444
C -0.3469825977763619 -0.32455138645028486 -0.6869284602726509
N -1.1675433059288167 -0.1741665775118681 0.5298132893151601
C -2.5703759128483834 -0.4943351306600692 0.2540465404008499
C -1.0812427436428858 1.1933807786567996 1.053931260447854
H 3.186733878058838 1.3527415693071896 0.32260022317772485
H 2.9444489916299252 0.6481559084882448 -1.1262517559023397
H 2.86731132990784 -0.9583110061410411 0.5922656805093026
H 1.6038540711566678 -0.04700758191204401 1.4010590415740634
H 1.4232289671953378 -1.3249412688232776 -1.3811444093424035
H 0.7549260025601493 -2.013034933811005 0.08347480577269041
H -0.883452941756443 -0.9391220489358116 -1.4231900828914212
H -0.17033387835517383 0.6355173191564952 -1.1881781065265586
H -2.9999866275581457 0.15554395409934285 -0.5171416819898536
H -2.668559327940042 -1.5351575221048113 -0.07459550675077094
H -3.1744477284580825 -0.39855109738013683 1.1633917635091684
H -1.6470571388483939 1.2780542841388876 1.9887597428248798
H -0.05114043739406589 1.4709078384836254 1.2921275746195748
H -1.4773550541778933 1.9320677931791845 0.3470723566074768


--Link1--
%nprocshared=3
%mem=6GB
%Oldchk=IUNMPGNGSSIWFP-UHFFFAOYSA-N_conf_2_0.chk
%Chk=IUNMPGNGSSIWFP-UHFFFAOYSA-N_conf_2_1.chk
# freq B3LYP/6-31G** SCRF=(Solvent=water) volume NMR pop=NPA density=current Geom=AllCheck Guess=Read


--Link1--
%nprocshared=3
%mem=6GB
%Oldchk=IUNMPGNGSSIWFP-UHFFFAOYSA-N_conf_2_1.chk
%Chk=IUNMPGNGSSIWFP-UHFFFAOYSA-N_conf_2_2.chk
# TD(NStates=10, Root=1) B3LYP/6-31G** SCRF=(Solvent=water) volume pop=NPA density=current Geom=AllCheck Guess=Read



