%nprocshared=3
%mem=6GB
%Chk=IUNMPGNGSSIWFP-UHFFFAOYSA-N_conf_0_0.chk
# opt=CalcFc B3LYP/6-31G** SCRF=(Solvent=water) scf=xqc 

IUNMPGNGSSIWFP-UHFFFAOYSA-N_conf_0

0 1
N 2.742115204847156 0.4427266980559601 1.0481573360893612
C 2.382123848165618 -0.5642630877479108 0.05531176450598096
C 1.0714862037120993 -0.24168537258172243 -0.6669824802324622
C -0.15141488767193292 -0.2755482998756781 0.25980859539509893
N -1.4318060820946645 -0.20577337047788444 -0.4700971987821946
C -2.544904673875594 -0.4631377375339733 0.44787650106504456
C -1.6215127495883979 1.0933251774774437 -1.120119552582875
H 3.655155740751838 0.2137978107185811 1.440733013432443
H 2.088826087866175 0.41368023367586715 1.8292343134966889
H 3.186007284564519 -0.6180050746035376 -0.6872443504436937
H 2.3204023930123836 -1.5470537218303304 0.5356870580081089
H 0.9364993752955094 -0.977758718733029 -1.4698649292596746
H 1.162791607675758 0.7395502265678647 -1.1476949754360943
H -0.11781954787866826 -1.2222567901780037 0.8148171080635422
H -0.08997811285369196 0.5314360422354548 1.0009898498587586
H -2.5990489674228403 0.28071166232187805 1.251151231525874
H -3.4987035109301727 -0.459433755382147 -0.09168703165462586
H -2.449177788551203 -1.4558900325067736 0.9017463544598656
H -1.5704885050040458 1.9240170417904077 -0.4070258821150701
H -0.8750787656013326 1.2585325396628997 -1.9031038191566971
H -2.5954741544188313 1.1330285289446334 -1.621692906237412


--Link1--
%nprocshared=3
%mem=6GB
%Oldchk=IUNMPGNGSSIWFP-UHFFFAOYSA-N_conf_0_0.chk
%Chk=IUNMPGNGSSIWFP-UHFFFAOYSA-N_conf_0_1.chk
# freq B3LYP/6-31G** SCRF=(Solvent=water) volume NMR pop=NPA density=current Geom=AllCheck Guess=Read


--Link1--
%nprocshared=3
%mem=6GB
%Oldchk=IUNMPGNGSSIWFP-UHFFFAOYSA-N_conf_0_1.chk
%Chk=IUNMPGNGSSIWFP-UHFFFAOYSA-N_conf_0_2.chk
# TD(NStates=10, Root=1) B3LYP/6-31G** SCRF=(Solvent=water) volume pop=NPA density=current Geom=AllCheck Guess=Read



