%nprocshared=3
%mem=6GB
%Chk=RLYCRLGLCUXUPO-UHFFFAOYSA-N_conf_0_0.chk
# opt=CalcFc B3LYP/6-31G** SCRF=(Solvent=water) scf=xqc 

RLYCRLGLCUXUPO-UHFFFAOYSA-N_conf_0

0 1
C -0.35839338315998936 -2.0107305748338753 0.031017074366305217
C -0.09456664980831823 -0.5257214566626928 -0.004992922258777712
C 1.2312645218031608 -0.03799758924493729 -0.07273480004946012
N 2.3384119699442025 -0.9009294453265807 -0.1741573504011972
C 1.4459496576237985 1.3333567571723957 -0.260536116587076
C 0.38141382428330745 2.228435207907764 -0.2741930840527007
C -0.9160902136167928 1.7567659287045994 -0.10507885112784102
C -1.167009406615702 0.3919066765636199 0.08510660728327558
N -2.5076221492970956 -0.03225090061517305 0.14478232610151326
H -0.35383290115914334 -2.365328790096269 1.066206232252598
H -1.3189942465977333 -2.2634303574474868 -0.4288556467921142
H 0.3888073866605159 -2.5695651551042875 -0.5412480264667466
H 2.2128458014163446 -1.7816773197267295 0.31279959750283304
H 3.2185764723112293 -0.45884152053946997 0.07100537130858484
H 2.4531030685354662 1.7138894947922774 -0.40886210641418075
H 0.5612258971042684 3.288276469868364 -0.42872382611144516
H -1.7395892009333276 2.465453707582697 -0.13292001334122544
H -2.6336967324681853 -0.9129045420083498 0.63177821352408
H -3.141803716025762 0.6812934090140111 0.48960732126314505


--Link1--
%nprocshared=3
%mem=6GB
%Oldchk=RLYCRLGLCUXUPO-UHFFFAOYSA-N_conf_0_0.chk
%Chk=RLYCRLGLCUXUPO-UHFFFAOYSA-N_conf_0_1.chk
# freq B3LYP/6-31G** SCRF=(Solvent=water) volume NMR pop=NPA density=current Geom=AllCheck Guess=Read


--Link1--
%nprocshared=3
%mem=6GB
%Oldchk=RLYCRLGLCUXUPO-UHFFFAOYSA-N_conf_0_1.chk
%Chk=RLYCRLGLCUXUPO-UHFFFAOYSA-N_conf_0_2.chk
# TD(NStates=10, Root=1) B3LYP/6-31G** SCRF=(Solvent=water) volume pop=NPA density=current Geom=AllCheck Guess=Read



