%nprocshared=5
%mem=10GB
%Chk=QYIMZXITLDTULQ-UHFFFAOYSA-N_conf_0_0.chk
# opt=CalcFc B3LYP/6-31G** SCRF=(Solvent=water) scf=xqc 

QYIMZXITLDTULQ-UHFFFAOYSA-N_conf_0

0 1
N -4.976063076419613 -0.21140230828696266 -0.25857989476910387
C -3.5851850233653253 -0.10531489349040929 -0.14061704319628962
C -2.997597950166419 1.1195271671442908 0.167141054220642
C -1.6073586089036742 1.2604596927517107 0.1696261276972455
C -0.7678461061554596 0.18800033486074877 -0.17420120298754183
C 0.6908896588002723 0.3906396015093743 -0.16484463697944354
C 1.3343095334035542 0.7786680609318343 -1.3516978967188342
C 2.7157925417113455 0.9846972283941504 -1.3905448282551627
C 3.4844084491043725 0.8540243879524924 -0.2362414472837652
N 4.879711732023846 0.9460224652836984 -0.3028416504928523
C 2.8623193352508376 0.4126956442528955 0.9345211612893632
C 1.4720628050923066 0.19891398330987303 0.9941489141045139
C 0.8541281788206287 -0.24500398305665536 2.293223195003751
C -1.358392153265223 -1.0382107266515341 -0.5457110202223745
C -0.5235559168909809 -2.2153597180518294 -0.9751597548087874
C -2.761186468983775 -1.158169705617455 -0.5465723686395859
H -5.486513297888175 0.43983961121416737 0.32924749816875337
H -5.32182100664878 -1.1617315875778291 -0.1715736843813873
H -3.6152472893053047 1.9800284015469198 0.40827911553709767
H -1.1748146979659777 2.2243879686503623 0.43076007830643787
H 0.7548598497738859 0.9091875014363698 -2.2637966094052944
H 3.1826911857700555 1.2510572500886648 -2.3345699974717316
H 5.213563138093489 1.5515258548420832 -1.0459774675045248
H 5.318366089607192 1.152543575335289 0.588842150051045
H 3.4680779629763716 0.2321793821920694 1.8195932458527222
H 0.3639209911366417 -1.2161507401109497 2.1728381233614
H 1.6089957498490606 -0.3555124900885958 3.079142681189688
H 0.12563525034325562 0.4935635613780732 2.642216601748712
H 0.2204145379232196 -2.4621465607945003 -0.21131727218052263
H -0.019455403146479307 -1.9979539341614914 -1.9220062891206908
H -1.139118815340863 -3.10907277356821 -1.123937847046263
H -3.2159911752338926 -2.091932251618272 -0.869389035067497


--Link1--
%nprocshared=5
%mem=10GB
%Oldchk=QYIMZXITLDTULQ-UHFFFAOYSA-N_conf_0_0.chk
%Chk=QYIMZXITLDTULQ-UHFFFAOYSA-N_conf_0_1.chk
# freq B3LYP/6-31G** SCRF=(Solvent=water) volume NMR pop=NPA density=current Geom=AllCheck Guess=Read


--Link1--
%nprocshared=5
%mem=10GB
%Oldchk=QYIMZXITLDTULQ-UHFFFAOYSA-N_conf_0_1.chk
%Chk=QYIMZXITLDTULQ-UHFFFAOYSA-N_conf_0_2.chk
# TD(NStates=10, Root=1) B3LYP/6-31G** SCRF=(Solvent=water) volume pop=NPA density=current Geom=AllCheck Guess=Read



