%nprocshared=5
%mem=10GB
%Chk=QYIMZXITLDTULQ-UHFFFAOYSA-N_conf_2_0.chk
# opt=CalcFc B3LYP/6-31G** SCRF=(Solvent=water) scf=xqc 

QYIMZXITLDTULQ-UHFFFAOYSA-N_conf_2

0 1
N -4.962020543118955 0.38130000446269796 0.14448219834095066
C -3.5650274036508054 0.3903457074454574 0.23414676116215408
C -2.8346868714262183 1.4577666871456894 -0.282966806875485
C -1.4379659429744167 1.4205847302702863 -0.3017040036722494
C -0.7350485470130116 0.2932145161177855 0.1545268580885243
C 0.7372803774610291 0.3047412935505698 0.11704863854078415
C 1.4458756655110474 0.6986332174354192 1.2641947702567031
C 2.8428478413922393 0.7285662298455383 1.2759377237166385
C 3.5680187375466086 0.4110947849507314 0.12984464266969759
N 4.9646713273783325 0.3289771449563776 0.178105232006713
C 2.874213457712668 -0.03690440743297082 -0.9972242512515218
C 1.4672017243335853 -0.07568339481242659 -1.0288469042398452
C 0.7755179144013977 -0.534100381037089 -2.2852564791240257
C -1.4705281169399689 -0.8154514684114704 0.6241170758940248
C -0.7852276818412101 -2.0674468620919066 1.1037086281248618
C -2.877178560283554 -0.7574168391262419 0.6364639323326446
H -5.409206980521418 -0.24963754941734284 0.8018954464937926
H -5.377746499278597 1.3072036050503513 0.15524471611861793
H -3.344221832123139 2.3331639075210675 -0.6755719284482727
H -0.8921336176650775 2.2779844428126412 -0.6907710190732792
H 0.9042686081093392 0.9731922475541605 2.1673658350223524
H 3.356684418066833 1.0057736585780845 2.1920229503355837
H 5.4097877464931745 0.40610870957198975 -0.7308352526576356
H 5.386150235986578 0.9437334147101388 0.8670697567105773
H 3.436191774890497 -0.3612488023945713 -1.870100849287972
H 1.4968965945454025 -0.8199039193411751 -3.058342552448339
H 0.15146531961862708 -1.4101745843321294 -2.0832248721901268
H 0.15757303696208153 0.27038144443797374 -2.6961880014982724
H -0.16350094217700364 -1.851371990770894 1.9781668357971998
H -0.16601663971358124 -2.4956008749596355 0.30933861812975205
H -1.5105294504876716 -2.8331892166124635 1.3991885990249717
H -3.4436051511948156 -1.6246354556763216 0.9681637020001663


--Link1--
%nprocshared=5
%mem=10GB
%Oldchk=QYIMZXITLDTULQ-UHFFFAOYSA-N_conf_2_0.chk
%Chk=QYIMZXITLDTULQ-UHFFFAOYSA-N_conf_2_1.chk
# freq B3LYP/6-31G** SCRF=(Solvent=water) volume NMR pop=NPA density=current Geom=AllCheck Guess=Read


--Link1--
%nprocshared=5
%mem=10GB
%Oldchk=QYIMZXITLDTULQ-UHFFFAOYSA-N_conf_2_1.chk
%Chk=QYIMZXITLDTULQ-UHFFFAOYSA-N_conf_2_2.chk
# TD(NStates=10, Root=1) B3LYP/6-31G** SCRF=(Solvent=water) volume pop=NPA density=current Geom=AllCheck Guess=Read



