%nprocshared=8
%mem=16GB
%Chk=LALHUWOVOZGIAW-WGKKAQPQSA-N_conf_4_0.chk
# opt=CalcFc B3LYP/6-31G** SCRF=(Solvent=water) scf=xqc 

LALHUWOVOZGIAW-WGKKAQPQSA-N_conf_4

0 1
N -6.0448999250536595 2.5626773152653874 -0.20818344746788434
C -4.842997843372748 1.8479504825027886 -0.2530550127280058
C -4.594576495308689 0.9473998072276572 -1.2860150982886243
C -3.447964808797663 0.14034608209335495 -1.281799560947522
C -2.5323026853826422 0.17764806455269005 -0.2193657688719417
C -1.2629090535676533 -0.6912479165313034 -0.1794762170571703
C -1.2886650947083709 -1.615709167531248 1.0720275829410404
C 0.0005937813787782791 0.21684879277019764 -0.09847836345179037
C 1.3166120703942408 -0.6092977799271221 0.016493878812833363
C 2.5200894945948926 0.3381597798782926 0.1644717954347708
C 2.5993635508629156 1.2200169875015476 1.2581144613759339
C 3.680932964678617 2.095112484900897 1.419061400506462
C 4.6993208096363785 2.151114568483745 0.47188171691414266
N 5.833148457427079 2.940053679176273 0.6941981392982358
C 4.666983008244606 1.2416330336571377 -0.5823998960519371
C 3.5861167095222486 0.36380957046316925 -0.7474069054959452
C 1.2114891045003604 -1.5362802692588469 1.26196798873457
C -0.010087824837903676 -2.464749076353826 1.16350970486397
C 0.11263600606804533 -3.342846170578122 -0.08469766305717857
C 0.17913113234542807 -2.4555799198649666 -1.3309857677124726
C 1.397716888630192 -1.5283553351180839 -1.2364581706925304
C -1.0958232618347952 -1.6075731370934658 -1.4258968374738354
C -2.831224163552675 1.0474791249001714 0.8455513322170538
C -3.977747486374923 1.85178223378692 0.8372317006945931
H -6.003624334640333 3.3924214749609414 0.3748385452683059
H -6.439087268042759 2.7542163115660308 -1.1236241566026484
H -5.292588367663739 0.8617813826500619 -2.1146322966408895
H -3.308195833137713 -0.5224191776644164 -2.1307502915031313
H -2.1674379152664227 -2.273680333881803 1.0350141242171513
H -1.3835981511180302 -1.0306646014609018 1.9952358364134948
H 0.047058709656126005 0.869044684617027 -0.982822072888116
H -0.0861759261376569 0.8928251706548432 0.7609694301171447
H 1.820495108479754 1.234201099798494 2.0170442908271746
H 3.7137949828111196 2.734899207408696 2.296640461633071
H 6.348105246418911 3.160464738709649 -0.1521693452988439
H 5.652071501449811 3.762737133615083 1.2603234226002606
H 5.486051429225683 1.2042097370588845 -1.2957611694436635
H 3.6181828537725584 -0.30238121367254156 -1.6045371033202391
H 1.1288913466780004 -0.9508441650599917 2.1861135765386046
H 2.125535874846643 -2.1372939122635475 1.3611571379337033
H -0.057556675457649836 -3.101280509937966 2.054520800415083
H -0.7444244416152472 -4.0241090333347564 -0.1520287844199407
H 1.0113075818020119 -3.9683307206354317 -0.018643307858887674
H 0.26696268976181403 -3.085361662360273 -2.223746843988394
H 2.306544395821123 -2.143962908652355 -1.2025290481716495
H 1.4553648005867872 -0.9244260581439753 -2.151895351777466
H -1.9586769968198143 -2.279466044499577 -1.526566502301995
H -1.0526512881668633 -1.004103738021241 -2.34243396144557
H -2.1782874465913493 1.1071412004875183 1.7132628497733466
H -4.182997212145544 2.483988703158216 1.6967287674276161


--Link1--
%nprocshared=8
%mem=16GB
%Oldchk=LALHUWOVOZGIAW-WGKKAQPQSA-N_conf_4_0.chk
%Chk=LALHUWOVOZGIAW-WGKKAQPQSA-N_conf_4_1.chk
# freq B3LYP/6-31G** SCRF=(Solvent=water) volume NMR pop=NPA density=current Geom=AllCheck Guess=Read


--Link1--
%nprocshared=8
%mem=16GB
%Oldchk=LALHUWOVOZGIAW-WGKKAQPQSA-N_conf_4_1.chk
%Chk=LALHUWOVOZGIAW-WGKKAQPQSA-N_conf_4_2.chk
# TD(NStates=10, Root=1) B3LYP/6-31G** SCRF=(Solvent=water) volume pop=NPA density=current Geom=AllCheck Guess=Read



