%nprocshared=3
%mem=6GB
%Chk=KQSABULTKYLFEV-UHFFFAOYSA-N_conf_0_0.chk
# opt=CalcFc B3LYP/6-31G** SCRF=(Solvent=water) scf=xqc 

KQSABULTKYLFEV-UHFFFAOYSA-N_conf_0

0 1
N 3.0769568302078736 0.2391897765575108 0.2955518600737245
C 1.812207270823344 -0.38459862584997423 0.19184101135283363
C 1.7892101331368726 -1.7468060655103064 -0.1311637575497067
C 0.5859708387493221 -2.409613382407896 -0.3260494226536902
C -0.6129669584897072 -1.70709422778052 -0.23260675066315342
C -0.6446355931506605 -0.318493107436012 0.028419891138470287
C -1.8609202689655406 0.4186776133081035 0.10848927128829959
N -3.127199137730057 -0.15786221673994735 -0.1610255257338608
C -1.829072648149901 1.8113087030689907 0.23636204620014856
C -0.6240297816655296 2.4810844641892924 0.3831112540599379
C 0.5690896769449002 1.7620809581472563 0.37557431996993695
C 0.596433898117154 0.3589840701330588 0.20417850267343945
H 3.819288813509019 -0.40599876978125593 0.5475121540663157
H 3.0707515793240363 1.0463784900705357 0.9095178634901986
H 2.7174929698455816 -2.3039218885207116 -0.22565722010537356
H 0.5799077730260769 -3.471274391936646 -0.5571601110247812
H -1.530010393102761 -2.2657026279540435 -0.3938226123716477
H -3.1757552555508344 -1.131422257758561 0.11889720790442831
H -3.3351487575637826 -0.07667868690836979 -1.1547225356041488
H -2.75928874894618 2.374316989013959 0.23420605205968356
H -0.6105557153296075 3.5614972133229843 0.4952978654790365
H 1.492273474960455 2.325947970772603 0.47587665348593305


--Link1--
%nprocshared=3
%mem=6GB
%Oldchk=KQSABULTKYLFEV-UHFFFAOYSA-N_conf_0_0.chk
%Chk=KQSABULTKYLFEV-UHFFFAOYSA-N_conf_0_1.chk
# freq B3LYP/6-31G** SCRF=(Solvent=water) volume NMR pop=NPA density=current Geom=AllCheck Guess=Read


--Link1--
%nprocshared=3
%mem=6GB
%Oldchk=KQSABULTKYLFEV-UHFFFAOYSA-N_conf_0_1.chk
%Chk=KQSABULTKYLFEV-UHFFFAOYSA-N_conf_0_2.chk
# TD(NStates=10, Root=1) B3LYP/6-31G** SCRF=(Solvent=water) volume pop=NPA density=current Geom=AllCheck Guess=Read



