%nprocshared=3
%mem=6GB
%Chk=KQSABULTKYLFEV-UHFFFAOYSA-N_conf_1_0.chk
# opt=CalcFc B3LYP/6-31G** SCRF=(Solvent=water) scf=xqc 

KQSABULTKYLFEV-UHFFFAOYSA-N_conf_1

0 1
N -2.928404092290513 1.020427556473904 -0.28730580518522014
C -1.8786340161295845 0.1100508758935549 -0.02500493296196251
C -2.218961650547221 -1.238484963361665 0.13679123624721515
C -1.2363490929633563 -2.2013784615305214 0.31682757946351686
C 0.1054923114860111 -1.8285226132378298 0.3093039665329876
C 0.5074785658898391 -0.4911742634625802 0.09427726531126694
C 1.8778520357362107 -0.0995850328303304 0.07586987161437263
N 2.9293600477391775 -1.0331986548747907 0.22521429889288386
C 2.2214356612215895 1.2053829253193664 -0.2977042336666184
C 1.239801668042165 2.15519042924553 -0.5413529007530086
C -0.10347206232368582 1.8014952726678826 -0.44068753072689504
C -0.5070484681385226 0.4854257951523808 -0.1222270324332395
H -2.717310018436315 1.9656904792196699 0.012730466552708665
H -3.8241021386671825 0.7106051354138746 0.07644065997903306
H -3.260865895291901 -1.5468592382858644 0.12522953337172552
H -1.511515823768607 -3.243749476210075 0.45111567005035696
H 0.8441082808135038 -2.6150011479347226 0.4363031062390796
H 2.7037755409357276 -1.7846056016889857 0.867557500092671
H 3.815800007052583 -0.5995439521180237 0.4634284265568297
H 3.2650794318496694 1.4904781631463995 -0.3992929901910699
H 1.5172071425366298 3.167598412634449 -0.8212882311121695
H -0.8407274347461304 2.5697583603684504 -0.6562259238744521


--Link1--
%nprocshared=3
%mem=6GB
%Oldchk=KQSABULTKYLFEV-UHFFFAOYSA-N_conf_1_0.chk
%Chk=KQSABULTKYLFEV-UHFFFAOYSA-N_conf_1_1.chk
# freq B3LYP/6-31G** SCRF=(Solvent=water) volume NMR pop=NPA density=current Geom=AllCheck Guess=Read


--Link1--
%nprocshared=3
%mem=6GB
%Oldchk=KQSABULTKYLFEV-UHFFFAOYSA-N_conf_1_1.chk
%Chk=KQSABULTKYLFEV-UHFFFAOYSA-N_conf_1_2.chk
# TD(NStates=10, Root=1) B3LYP/6-31G** SCRF=(Solvent=water) volume pop=NPA density=current Geom=AllCheck Guess=Read



