%nprocshared=3
%mem=6GB
%Chk=UQUPIHHYKUEXQD-UHFFFAOYSA-N_conf_2_0.chk
# opt=CalcFc B3LYP/6-31G** SCRF=(Solvent=water) scf=xqc 

UQUPIHHYKUEXQD-UHFFFAOYSA-N_conf_2

0 1
C 3.5500062137447266 0.026937760584890322 -0.17683854765031576
N 2.256481296706057 0.46838933070099525 0.32541695158835204
C 1.1795580985499832 -0.4016585909581162 -0.1495455222644277
C -0.17190438494961904 0.10608971219772009 0.36217138640111823
C -1.308246962999255 -0.8010832228759346 -0.1212856583086147
N -2.6205164890729766 -0.42352461776422345 0.41111594770595006
C -3.1275355596123298 0.8155798787491407 -0.16422887808815964
H 3.7810125485858266 -0.9881839296341226 0.16189849945231635
H 4.334276898311984 0.6876768344391515 0.20530439239571974
H 3.5875510134848465 0.057142527714950965 -1.270624146778184
H 2.083425348575193 1.4266732307030208 0.023120439027599603
H 1.1678488420922364 -0.424406598205818 -1.246070128430686
H 1.343590254630629 -1.424616320812883 0.20960239557266555
H -0.16527428359065915 0.13590965442867406 1.4593509708448886
H -0.32802939795537145 1.1322872492564853 0.009054202940695137
H -1.1015477092038948 -1.82440686574576 0.21499794795592692
H -1.336452962866055 -0.8344747737269413 -1.2173600479017774
H -3.2835663022687096 -1.1711935852059756 0.20551793779798405
H -4.139622806216778 0.9987940152906971 0.210787526696527
H -3.1816297363364536 0.760719817362458 -1.2562804781313117
H -2.5194239196094923 1.6773484935016145 0.12489009837368005


--Link1--
%nprocshared=3
%mem=6GB
%Oldchk=UQUPIHHYKUEXQD-UHFFFAOYSA-N_conf_2_0.chk
%Chk=UQUPIHHYKUEXQD-UHFFFAOYSA-N_conf_2_1.chk
# freq B3LYP/6-31G** SCRF=(Solvent=water) volume NMR pop=NPA density=current Geom=AllCheck Guess=Read


--Link1--
%nprocshared=3
%mem=6GB
%Oldchk=UQUPIHHYKUEXQD-UHFFFAOYSA-N_conf_2_1.chk
%Chk=UQUPIHHYKUEXQD-UHFFFAOYSA-N_conf_2_2.chk
# TD(NStates=10, Root=1) B3LYP/6-31G** SCRF=(Solvent=water) volume pop=NPA density=current Geom=AllCheck Guess=Read



