%nprocshared=3
%mem=6GB
%Chk=UQUPIHHYKUEXQD-UHFFFAOYSA-N_conf_1_0.chk
# opt=CalcFc B3LYP/6-31G** SCRF=(Solvent=water) scf=xqc 

UQUPIHHYKUEXQD-UHFFFAOYSA-N_conf_1

0 1
C -3.404489723847464 0.4941327977708305 -0.3792192389183082
N -2.398402374014991 -0.3489103025162354 0.2521522737800945
C -1.062281032319459 -0.061587996957177274 -0.27679843252836034
C -0.027326996212783422 -0.9432336884645216 0.425615848471917
C 1.385061765148262 -0.7999441989201846 -0.15234598706064853
N 1.949233041045435 0.5298006687087881 0.0881317021086743
C 3.3291650318338193 0.6012891015717546 -0.37697034572523547
H -3.4432459065200813 0.3224866604655403 -1.4597727364905788
H -4.390853789159541 0.25157150669481776 0.028126015926920194
H -3.2143988588027215 1.5558828156875508 -0.19140607777158838
H -2.4044892503391186 -0.18336465937276203 1.2589381104678028
H -0.8213657237830331 0.9960538127164631 -0.12107294481647628
H -1.0395085035023988 -0.26230360977406486 -1.354404847646404
H -0.01016224342864258 -0.718965091572233 1.5002443034908066
H -0.325563374857564 -1.9956876308394071 0.33052666064308855
H 2.0196197350934453 -1.5563240483901841 0.325676664530291
H 1.3658673939921526 -1.0167028411322612 -1.2273200719873008
H 1.4016167703837334 1.2344120530661558 -0.40356428673522804
H 3.4001078498376027 0.4114042126769161 -1.4529069019589769
H 3.9648826573400227 -0.11270324095010269 0.15654225268672806
H 3.7265335321130375 1.6026936795303373 -0.18453879993422623


--Link1--
%nprocshared=3
%mem=6GB
%Oldchk=UQUPIHHYKUEXQD-UHFFFAOYSA-N_conf_1_0.chk
%Chk=UQUPIHHYKUEXQD-UHFFFAOYSA-N_conf_1_1.chk
# freq B3LYP/6-31G** SCRF=(Solvent=water) volume NMR pop=NPA density=current Geom=AllCheck Guess=Read


--Link1--
%nprocshared=3
%mem=6GB
%Oldchk=UQUPIHHYKUEXQD-UHFFFAOYSA-N_conf_1_1.chk
%Chk=UQUPIHHYKUEXQD-UHFFFAOYSA-N_conf_1_2.chk
# TD(NStates=10, Root=1) B3LYP/6-31G** SCRF=(Solvent=water) volume pop=NPA density=current Geom=AllCheck Guess=Read



