%nprocshared=3
%mem=6GB
%Chk=DGRGLKZMKWPMOH-UHFFFAOYSA-N_conf_1_0.chk
# opt=CalcFc B3LYP/6-31G** SCRF=(Solvent=water) scf=xqc 

DGRGLKZMKWPMOH-UHFFFAOYSA-N_conf_1

0 1
C 2.8204270923455574 -0.4239326043172261 0.5666963833921358
C 1.398805911863575 -0.050389976359151455 0.26860772650055226
C 1.0652355800324986 1.2684112631838464 -0.0584305562402039
C -0.26020069270752066 1.6162280476302708 -0.3298634249533642
C -1.2685716713788977 0.6535284028313071 -0.26454402945649863
N -2.6054119619814657 0.9995146654566377 -0.5709505513529645
C -0.9168189902184954 -0.7011338396535182 -0.09601585238664986
N -1.9274953459506787 -1.6912690693419514 -0.07658663503942008
C 0.3978963446859596 -1.0311581875691511 0.24686837952745108
H 3.356806652528035 0.4138575255113729 1.0245554528148408
H 2.8644122407213555 -1.2609774365098116 1.2714139190123046
H 3.333622610119326 -0.7103704477329879 -0.3563928394030008
H 1.833228943664773 2.0377076572188746 -0.09225318278967737
H -0.5001237593818205 2.64789506758004 -0.5693333423313819
H -2.803943273018242 1.9728692679342716 -0.36140213642285657
H -3.234037031851021 0.38253224582227235 -0.05870763993116907
H -2.6484095203529865 -1.4432372077433113 -0.752580311130557
H -1.5567745972901157 -2.617129527930662 -0.2663076309613334
H 0.6513514681700764 -2.0629458460111945 0.4752262711516386


--Link1--
%nprocshared=3
%mem=6GB
%Oldchk=DGRGLKZMKWPMOH-UHFFFAOYSA-N_conf_1_0.chk
%Chk=DGRGLKZMKWPMOH-UHFFFAOYSA-N_conf_1_1.chk
# freq B3LYP/6-31G** SCRF=(Solvent=water) volume NMR pop=NPA density=current Geom=AllCheck Guess=Read


--Link1--
%nprocshared=3
%mem=6GB
%Oldchk=DGRGLKZMKWPMOH-UHFFFAOYSA-N_conf_1_1.chk
%Chk=DGRGLKZMKWPMOH-UHFFFAOYSA-N_conf_1_2.chk
# TD(NStates=10, Root=1) B3LYP/6-31G** SCRF=(Solvent=water) volume pop=NPA density=current Geom=AllCheck Guess=Read



