%nprocshared=3
%mem=6GB
%Chk=DGRGLKZMKWPMOH-UHFFFAOYSA-N_conf_0_0.chk
# opt=CalcFc B3LYP/6-31G** SCRF=(Solvent=water) scf=xqc 

DGRGLKZMKWPMOH-UHFFFAOYSA-N_conf_0

0 1
C 2.8918334373760364 0.3024249973040628 0.0019899927696765685
C 1.4212648612055292 0.02915573990890033 -0.1086900603936326
C 0.9607096580894416 -1.1343386409056764 -0.734631867673139
C -0.40562059697440517 -1.422103873386963 -0.7763342858134255
C -1.3242394043720616 -0.5686412460228075 -0.16327846189929418
N -2.70986019217027 -0.8440324566443428 -0.23345862890087155
C -0.8808581616367726 0.6668354654247047 0.35101426924099943
N -1.8103387799225426 1.5544394951458114 0.9432061249351543
C 0.49140940129238375 0.9137330679475177 0.4544432107585882
H 3.283140624861441 -0.12692859218809016 0.9293719745314514
H 3.0901796298330204 1.3793934556699792 -0.0015491727011699803
H 3.4350968758757787 -0.12994515892884442 -0.8448495001822789
H 1.663391473272456 -1.8312621248222642 -1.1855575300171473
H -0.7419926993515974 -2.3313710299677 -1.2655463301637961
H -2.896843149937254 -1.838580999789343 -0.31462856093438774
H -3.1684421009719217 -0.4543168318125968 0.5887103567253401
H -1.4545964553682316 2.5043883814352244 0.985441618262848
H -2.684092261141932 1.5174063783110838 0.4203604098261886
H 0.8398578400409206 1.813743973321332 0.9539864416289533


--Link1--
%nprocshared=3
%mem=6GB
%Oldchk=DGRGLKZMKWPMOH-UHFFFAOYSA-N_conf_0_0.chk
%Chk=DGRGLKZMKWPMOH-UHFFFAOYSA-N_conf_0_1.chk
# freq B3LYP/6-31G** SCRF=(Solvent=water) volume NMR pop=NPA density=current Geom=AllCheck Guess=Read


--Link1--
%nprocshared=3
%mem=6GB
%Oldchk=DGRGLKZMKWPMOH-UHFFFAOYSA-N_conf_0_1.chk
%Chk=DGRGLKZMKWPMOH-UHFFFAOYSA-N_conf_0_2.chk
# TD(NStates=10, Root=1) B3LYP/6-31G** SCRF=(Solvent=water) volume pop=NPA density=current Geom=AllCheck Guess=Read



