%nprocshared=4
%mem=8GB
%Chk=UDGSVBYJWHOHNN-UHFFFAOYSA-N_conf_1_0.chk
# opt=CalcFc B3LYP/6-31G** SCRF=(Solvent=water) scf=xqc 

UDGSVBYJWHOHNN-UHFFFAOYSA-N_conf_1

0 1
N 3.04550004851939 0.6274792340589105 -0.16338871736017332
C 2.2064733076588046 -0.2698418646468674 -0.9643863977808632
C 1.077852055110979 -0.9468677678394922 -0.1486138257257226
N -0.2284458606108149 -0.24694641829547803 -0.14814376251802716
C -0.10352474194398974 1.0989379723135695 0.44635028717738495
C -1.3881337561627796 1.9229725293654778 0.4268629960045605
C -1.2355843700685738 -1.0761853569828101 0.5395957516957076
C -2.5212055935667212 -1.1480208552130147 -0.275897198891934
H 3.4983772920205816 0.09778153644441634 0.5794325635012263
H 3.791139018249886 0.9968433595492012 -0.7514421031062134
H 1.7914531799375202 0.27341276754852106 -1.8207203586378733
H 2.8560447067182144 -1.05274624701792 -1.3736623841375417
H 1.4161356819340385 -1.144838435761261 0.8776512809171918
H 0.9231160611099898 -1.9281058463539524 -0.6181403459113933
H 0.26627877081378065 1.0342280391130365 1.4775297976962558
H 0.6249420674725245 1.6830262538149188 -0.12503096861722512
H -1.7971691662454519 1.9921458517569153 -0.5863795510777516
H -1.1797995872447136 2.941892364196908 0.7706359794511475
H -2.152686815665222 1.507322515985403 1.0895579582647994
H -1.440920995531769 -0.7191323265288687 1.5561382128559527
H -0.8846073009156635 -2.109734837269243 0.6597813152219691
H -2.9901014627555553 -0.1688977593674505 -0.4022353372230721
H -2.3305516182660764 -1.5650294851048838 -1.270765058544191
H -3.2445809205684175 -1.7996952237659227 0.22526986674585195


--Link1--
%nprocshared=4
%mem=8GB
%Oldchk=UDGSVBYJWHOHNN-UHFFFAOYSA-N_conf_1_0.chk
%Chk=UDGSVBYJWHOHNN-UHFFFAOYSA-N_conf_1_1.chk
# freq B3LYP/6-31G** SCRF=(Solvent=water) volume NMR pop=NPA density=current Geom=AllCheck Guess=Read


--Link1--
%nprocshared=4
%mem=8GB
%Oldchk=UDGSVBYJWHOHNN-UHFFFAOYSA-N_conf_1_1.chk
%Chk=UDGSVBYJWHOHNN-UHFFFAOYSA-N_conf_1_2.chk
# TD(NStates=10, Root=1) B3LYP/6-31G** SCRF=(Solvent=water) volume pop=NPA density=current Geom=AllCheck Guess=Read



