%nprocshared=3
%mem=6GB
%Chk=AHLPHDHHMVZTML-BYPYZUCNSA-N_conf_1_0.chk
# opt=CalcFc B3LYP/6-31G** SCRF=(Solvent=water) scf=xqc 

AHLPHDHHMVZTML-BYPYZUCNSA-N_conf_1

0 1
N 1.3878376306052156 -1.939253625649282 0.6649247566403462
C 1.6167186931672446 -0.7161745525042124 -0.13914584350097245
C 0.3402335337425536 -0.2915084968455369 -0.8789961060657595
C -0.8390588796329671 0.07206563042889569 0.033012988226144964
C -2.045206642355249 0.5255922559795169 -0.7893168109401533
N -3.148502265628279 0.8868944733911356 0.09273867745707236
C 2.181700935530191 0.4040427201091496 0.7439013000278445
O 2.432034272393096 1.5424966867794487 0.06869109549600362
O 2.435951908495084 0.3245823681958554 1.9368099391442546
H 2.273849042458095 -2.190516203431375 1.1103210335221956
H 0.7857739300077767 -1.6947036746035775 1.4546907220516558
H 2.3917024546779864 -0.9573586176787104 -0.8764069245693585
H 0.03308497475409341 -1.1026474361390992 -1.552395743819597
H 0.5685050468186172 0.568678389415998 -1.5213886924603066
H -1.1224930658972063 -0.7934036648369095 0.6435915453034654
H -0.5439823501220077 0.8730940789120535 0.7215904261776286
H -1.779655469896593 1.3943619211351825 -1.401088043646763
H -2.366492714372873 -0.27420442170125664 -1.4655263777527585
H -3.4291220347348093 0.0741840189029974 0.6407821196798652
H -3.959616154161596 1.1425932332448132 -0.4692834056045784
H 2.786737154151223 2.151184916894972 0.7506379901460692


--Link1--
%nprocshared=3
%mem=6GB
%Oldchk=AHLPHDHHMVZTML-BYPYZUCNSA-N_conf_1_0.chk
%Chk=AHLPHDHHMVZTML-BYPYZUCNSA-N_conf_1_1.chk
# freq B3LYP/6-31G** SCRF=(Solvent=water) volume NMR pop=NPA density=current Geom=AllCheck Guess=Read


--Link1--
%nprocshared=3
%mem=6GB
%Oldchk=AHLPHDHHMVZTML-BYPYZUCNSA-N_conf_1_1.chk
%Chk=AHLPHDHHMVZTML-BYPYZUCNSA-N_conf_1_2.chk
# TD(NStates=10, Root=1) B3LYP/6-31G** SCRF=(Solvent=water) volume pop=NPA density=current Geom=AllCheck Guess=Read



