%nprocshared=3
%mem=6GB
%Chk=AHLPHDHHMVZTML-BYPYZUCNSA-N_conf_0_0.chk
# opt=CalcFc B3LYP/6-31G** SCRF=(Solvent=water) scf=xqc 

AHLPHDHHMVZTML-BYPYZUCNSA-N_conf_0

0 1
N -2.546835691900533 -0.5470786498735134 -1.280152147668656
C -1.611350398166758 -0.41568876669647914 -0.13877671066572134
C -0.179575272263552 -0.20897947374266562 -0.65029944518321
C 0.8603924599039623 -0.23642637319399554 0.4760259476737146
C 2.278581629783095 -0.12540900512993766 -0.08352637641936932
N 3.250310824356243 -0.12259100055726478 1.0014424129594208
C -2.0502612755125655 0.7523698535229885 0.7521768609355459
O -2.441417368794786 1.8419094102208091 0.050136715315666415
O -2.0290425191961643 0.7814259082146026 1.972347114931357
H -2.1426858131294293 -1.1518836817363196 -1.9918601311242505
H -2.6488953543940137 0.3776292098534093 -1.7066200795265747
H -1.6819335003321723 -1.3353615458474102 0.4521470227532031
H 0.06619991598350326 -1.0002213149174632 -1.3707083378660956
H -0.10270685779699983 0.7457088363684619 -1.1870071937993396
H 0.6775118238813729 0.5907713850606278 1.172392214296697
H 0.7581023474827954 -1.1689273050424354 1.0452657498405211
H 2.4872700843488738 -0.9644162371132006 -0.7563358216662875
H 2.384862964133294 0.7996227390550402 -0.6602110042230875
H 4.193472471078161 -0.10774213080598977 0.6154493809439532
H 3.174559345574462 -0.9850450359365136 1.5395588463695562
H -2.696559815038505 2.480333178297546 0.7485549821232079


--Link1--
%nprocshared=3
%mem=6GB
%Oldchk=AHLPHDHHMVZTML-BYPYZUCNSA-N_conf_0_0.chk
%Chk=AHLPHDHHMVZTML-BYPYZUCNSA-N_conf_0_1.chk
# freq B3LYP/6-31G** SCRF=(Solvent=water) volume NMR pop=NPA density=current Geom=AllCheck Guess=Read


--Link1--
%nprocshared=3
%mem=6GB
%Oldchk=AHLPHDHHMVZTML-BYPYZUCNSA-N_conf_0_1.chk
%Chk=AHLPHDHHMVZTML-BYPYZUCNSA-N_conf_0_2.chk
# TD(NStates=10, Root=1) B3LYP/6-31G** SCRF=(Solvent=water) volume pop=NPA density=current Geom=AllCheck Guess=Read



