%nprocshared=4
%mem=8GB
%Chk=QNGVNLMMEQUVQK-UHFFFAOYSA-N_conf_4_0.chk
# opt=CalcFc B3LYP/6-31G** SCRF=(Solvent=water) scf=xqc 

QNGVNLMMEQUVQK-UHFFFAOYSA-N_conf_4

0 1
N 4.496967424256513 -0.39301751738589785 -0.14142092105244258
C 3.1149501268757898 -0.2154262902003221 -0.028859384139641026
C 2.3447367765720126 -1.0995078916389682 0.7159483797649345
C 0.9438857652377656 -0.993468677427304 0.7380332495735142
C 0.24541442326968246 -0.03254785528823547 -0.01190813216227787
N -1.1412108287082503 0.0735197825858335 0.017926026576528854
C -1.8742862717441244 0.9848632733153934 -0.8700736988548035
C -1.993685297410105 2.3715432920813613 -0.25397379682730187
C -1.962937576356964 -0.7092124444202969 0.9499526493375572
C -2.3453458712491537 -2.0526466118836884 0.34522265301766875
C 1.0490357536050996 0.8026554844894561 -0.80565907537576
C 2.450327766907293 0.7028710368140707 -0.8318044577945823
H 4.993278064195168 0.4448983800344257 -0.4270721840584079
H 4.918414183384266 -0.8329514180270755 0.6702866295062837
H 2.8190598042586905 -1.8880037577961835 1.2933866182456761
H 0.4163732335179679 -1.7151955698309804 1.3529848776605296
H -1.4218167984956853 1.0353780614673431 -1.8666991950002076
H -2.8860813078450525 0.5960943629096919 -1.0431106525521665
H -1.0131963003721893 2.825781436826279 -0.08251347502542544
H -2.512797344743428 2.330464594475855 0.7093278411437286
H -2.5616822535148294 3.031561768253434 -0.9170409870936426
H -1.4685662837013984 -0.8415361008413487 1.9188629743691739
H -2.884548482744883 -0.15925273424441178 1.1801219817240487
H -2.907576083510838 -1.9193942902195373 -0.5849704484688619
H -1.464787706528736 -2.660043678522112 0.1154391193602068
H -2.973205113208193 -2.6157095604025096 1.042816995621028
H 0.6096477572798696 1.5668643949281609 -1.4381640496192263
H 3.0096324407737973 1.3614185299474872 -1.4903229053529632


--Link1--
%nprocshared=4
%mem=8GB
%Oldchk=QNGVNLMMEQUVQK-UHFFFAOYSA-N_conf_4_0.chk
%Chk=QNGVNLMMEQUVQK-UHFFFAOYSA-N_conf_4_1.chk
# freq B3LYP/6-31G** SCRF=(Solvent=water) volume NMR pop=NPA density=current Geom=AllCheck Guess=Read


--Link1--
%nprocshared=4
%mem=8GB
%Oldchk=QNGVNLMMEQUVQK-UHFFFAOYSA-N_conf_4_1.chk
%Chk=QNGVNLMMEQUVQK-UHFFFAOYSA-N_conf_4_2.chk
# TD(NStates=10, Root=1) B3LYP/6-31G** SCRF=(Solvent=water) volume pop=NPA density=current Geom=AllCheck Guess=Read



