%nprocshared=4
%mem=8GB
%Chk=QNGVNLMMEQUVQK-UHFFFAOYSA-N_conf_0_0.chk
# opt=CalcFc B3LYP/6-31G** SCRF=(Solvent=water) scf=xqc 

QNGVNLMMEQUVQK-UHFFFAOYSA-N_conf_0

0 1
N 4.471073936792133 0.42643699621296904 -0.3692761879509886
C 3.0820779577861073 0.2890829485121166 -0.29009982579328136
C 2.246053074533714 1.0782378369020311 -1.070349880140563
C 0.8575529578583291 0.8658266583100641 -1.0807129913716167
C 0.24609444639700026 -0.1666314203100082 -0.3507866968790176
N -1.1306703716546964 -0.3704320472915061 -0.36004920539732244
C -2.0645538802551937 0.6419450734348374 -0.8728261636549863
C -2.1830604887993617 1.8318865416301264 0.07026492385521337
C -1.7239163092018324 -1.6227655814102793 0.12681563599209292
C -2.1227477896024034 -1.517343738871246 1.5908512334139073
C 1.1239837747519108 -0.9869566322914648 0.376634266642534
C 2.513203035812985 -0.7793712430599584 0.3921359851420232
H 4.774698285391214 1.3663671840211506 -0.6024462633081348
H 4.963984107207046 0.05007811610092217 0.4341009479660943
H 2.658612064598721 1.873146823386082 -1.6851800850126242
H 0.27075266545578913 1.5303042698793154 -1.7063604427200243
H -3.0656345427102867 0.20738690005724156 -0.9867500954467672
H -1.7831944109274807 0.9674216939497183 -1.8803853292519068
H -1.2332919250840817 2.362617394182979 0.1830168986476233
H -2.9197962007446745 2.5439879390796603 -0.3150624045413878
H -2.5070316069457887 1.5170672340886862 1.066953513842387
H -2.6170155970728595 -1.8640970499348415 -0.4634241045341939
H -1.0547701397859672 -2.476774698510973 -0.029396148774185976
H -2.900457067983605 -0.7606377108296821 1.733332162467174
H -2.5200839353979902 -2.4745307399675887 1.9429773435647433
H -1.273384035367138 -1.2468152593007293 2.2253093871787586
H 0.7525097287922914 -1.8182349202569081 0.9670102780605725
H 3.139012266156341 -1.4672025677125435 0.9537032480037526


--Link1--
%nprocshared=4
%mem=8GB
%Oldchk=QNGVNLMMEQUVQK-UHFFFAOYSA-N_conf_0_0.chk
%Chk=QNGVNLMMEQUVQK-UHFFFAOYSA-N_conf_0_1.chk
# freq B3LYP/6-31G** SCRF=(Solvent=water) volume NMR pop=NPA density=current Geom=AllCheck Guess=Read


--Link1--
%nprocshared=4
%mem=8GB
%Oldchk=QNGVNLMMEQUVQK-UHFFFAOYSA-N_conf_0_1.chk
%Chk=QNGVNLMMEQUVQK-UHFFFAOYSA-N_conf_0_2.chk
# TD(NStates=10, Root=1) B3LYP/6-31G** SCRF=(Solvent=water) volume pop=NPA density=current Geom=AllCheck Guess=Read



