%nprocshared=4
%mem=8GB
%Chk=QNGVNLMMEQUVQK-UHFFFAOYSA-N_conf_1_0.chk
# opt=CalcFc B3LYP/6-31G** SCRF=(Solvent=water) scf=xqc 

QNGVNLMMEQUVQK-UHFFFAOYSA-N_conf_1

0 1
N 4.416313290724713 0.4277047972296318 0.8334635625149729
C 3.0535473281910748 0.28823727535150334 0.5544224511229598
C 2.5689602274774246 -0.8621840163375966 -0.055659390923577225
C 1.2221866693844166 -0.9600037711212893 -0.4426860010120084
C 0.3110208557684989 0.09634911255946788 -0.2797724718370596
N -1.0238138763277893 -0.00664189066267927 -0.6601807089376148
C -1.6481746050888872 -1.3007899052854595 -0.9689544736018705
C -1.8755624788148448 -2.1331988376962125 0.28596298746848503
C -1.87746326594649 1.1812513387065506 -0.7925054750145599
C -2.6490707602790238 1.457571077035989 0.4888420916643576
C 0.8462799030382188 1.267918329144571 0.28030545926536754
C 2.191727899704278 1.3719653992223775 0.6704413408096731
H 4.618102847749041 1.1309394042504926 1.5368577768346972
H 4.885482710529218 -0.45223964570836966 1.0221500905740961
H 3.229588671529007 -1.7042233058537763 -0.24178335585927
H 0.9171694509409033 -1.8942952447264436 -0.90242951586372
H -2.6243136230541655 -1.143893983636624 -1.4448951571029014
H -1.0617686313698218 -1.8582592608142432 -1.707621905217248
H -2.3840164673707407 -3.067967872873077 0.029008000528443864
H -0.9362135155058067 -2.3902999616290934 0.7839281379538112
H -2.498300294893523 -1.597954281273939 1.0092658123380172
H -1.3012593690625271 2.063995301100887 -1.0929103795278745
H -2.5953833708481295 1.0329033965504533 -1.6091042410338139
H -1.981463459200483 1.5835150068277075 1.3465006993648094
H -3.336907700236489 0.637898278168076 0.7185212002139789
H -3.2425361992976214 2.3710268695850294 0.3817339659175754
H 0.22710612606441433 2.144628523259099 0.4401914771780076
H 2.548761636195173 2.316047868626453 1.072115784542158


--Link1--
%nprocshared=4
%mem=8GB
%Oldchk=QNGVNLMMEQUVQK-UHFFFAOYSA-N_conf_1_0.chk
%Chk=QNGVNLMMEQUVQK-UHFFFAOYSA-N_conf_1_1.chk
# freq B3LYP/6-31G** SCRF=(Solvent=water) volume NMR pop=NPA density=current Geom=AllCheck Guess=Read


--Link1--
%nprocshared=4
%mem=8GB
%Oldchk=QNGVNLMMEQUVQK-UHFFFAOYSA-N_conf_1_1.chk
%Chk=QNGVNLMMEQUVQK-UHFFFAOYSA-N_conf_1_2.chk
# TD(NStates=10, Root=1) B3LYP/6-31G** SCRF=(Solvent=water) volume pop=NPA density=current Geom=AllCheck Guess=Read



