%nprocshared=4
%mem=8GB
%Chk=ICNFHJVPAJKPHW-UHFFFAOYSA-N_conf_1_0.chk
# opt=CalcFc B3LYP/6-31G** SCRF=(Solvent=water) scf=xqc 

ICNFHJVPAJKPHW-UHFFFAOYSA-N_conf_1

0 1
N 4.676388519962097 1.399252549793601 0.5316450669772833
C 3.6363493144027 0.5113939002400777 0.2365329652701891
C 2.6673610013860016 0.8510752088290572 -0.7096598372660197
C 1.5589017550686888 0.025594709309896373 -0.927073603321449
C 1.3778364459266663 -1.1289332800292264 -0.16124066335794132
S -0.018653857762126847 -2.209733250322566 -0.41252590483774865
C -1.3971138564284087 -1.0874304860205524 -0.26507200847642043
C -2.341020390238841 -1.0250679780329361 -1.2928060530286107
C -3.434257589692082 -0.15724234508390195 -1.1972499153066756
C -3.628196852400384 0.6238364264307467 -0.05624153334094207
N -4.6531843539165445 1.5751725775605068 -0.018477763389873714
C -2.6566655262807934 0.5949522268691211 0.9462030841533049
C -1.5620559949206339 -0.27182398045098394 0.8573356607441975
C 2.319661875977028 -1.4456900005354265 0.8204496178095824
C 3.4267848492021873 -0.6168607512043344 1.0319704756847259
H 4.942126656839585 1.993316017747098 -0.2475487764473437
H 5.478736719630459 0.960281573571869 0.972098528836398
H 2.765834350502341 1.7634445285241624 -1.291788390862791
H 0.8348573766181902 0.30432942348677033 -1.6886565182786155
H -2.2281422442430325 -1.6382572543867322 -2.183516907298194
H -4.135499484467974 -0.1002259379477016 -2.0254351681969816
H -4.911709502723943 1.862597223582959 0.9202568938541614
H -5.461121272026502 1.3311874992085995 -0.5825402511573485
H -2.7423374775080407 1.2468672875299025 1.8114518685054304
H -0.8358730671742676 -0.28919798114146295 1.6662230478044557
H 2.194527367478815 -2.3302883555970584 1.440074551098371
H 4.12646523678922 -0.8648419263058599 1.8255915338288133


--Link1--
%nprocshared=4
%mem=8GB
%Oldchk=ICNFHJVPAJKPHW-UHFFFAOYSA-N_conf_1_0.chk
%Chk=ICNFHJVPAJKPHW-UHFFFAOYSA-N_conf_1_1.chk
# freq B3LYP/6-31G** SCRF=(Solvent=water) volume NMR pop=NPA density=current Geom=AllCheck Guess=Read


--Link1--
%nprocshared=4
%mem=8GB
%Oldchk=ICNFHJVPAJKPHW-UHFFFAOYSA-N_conf_1_1.chk
%Chk=ICNFHJVPAJKPHW-UHFFFAOYSA-N_conf_1_2.chk
# TD(NStates=10, Root=1) B3LYP/6-31G** SCRF=(Solvent=water) volume pop=NPA density=current Geom=AllCheck Guess=Read



