%nprocshared=4
%mem=8GB
%Chk=ICNFHJVPAJKPHW-UHFFFAOYSA-N_conf_3_0.chk
# opt=CalcFc B3LYP/6-31G** SCRF=(Solvent=water) scf=xqc 

ICNFHJVPAJKPHW-UHFFFAOYSA-N_conf_3

0 1
N 4.6117920777350685 1.274630415886183 -1.2018894850751247
C 3.6023479661621214 0.5384969461925495 -0.5723143330839657
C 2.57814599461983 1.192662814678927 0.11535505588338797
C 1.5008156323679525 0.4752222511772657 0.6462046903219558
C 1.4082581832506205 -0.905193005783055 0.4514390056867211
S 0.05218132618133219 -1.8517808205429145 1.1188583340028735
C -1.3619589171594961 -1.0261601384785504 0.4114135721571493
C -2.3934283392979414 -0.596049821853846 1.2491833259163603
C -3.5177174605099313 0.043493888242323586 0.7156386283180417
C -3.6131803469340897 0.29491966396994995 -0.654501752160091
N -4.788933924225701 0.8272625618242533 -1.1939709003398744
C -2.6136772528347283 -0.1992814806828721 -1.4948810901864185
C -1.4873218571470181 -0.8401628543873738 -0.9676423055445859
C 2.4055540765115833 -1.5558453952799094 -0.27842204031702233
C 3.4806684304393016 -0.8327550152493285 -0.806185777818735
H 4.817301627059306 2.159718608439453 -0.7491056716688955
H 5.451417248054217 0.7377385729579728 -1.3953277497461727
H 2.6091129886836235 2.2707348100413594 0.248286227629667
H 0.7314640070017324 1.0086798748617904 1.1986907299780063
H -2.339462905359923 -0.7644625923943088 2.3219402015231623
H -4.3205470054527995 0.3422763238585626 1.3842898445356175
H -4.665552625889793 1.2537932062722001 -2.1069083833949063
H -5.30093193323604 1.4264612452099281 -0.5543620537677184
H -2.7010053027229755 -0.09139187179956043 -2.572710396475585
H -0.7193563848841958 -1.2011490892140495 -1.6471984994559163
H 2.3488123381285515 -2.6268592372594317 -0.4568873963044251
H 4.225202359459081 -1.354999860687554 -1.4010480967434273


--Link1--
%nprocshared=4
%mem=8GB
%Oldchk=ICNFHJVPAJKPHW-UHFFFAOYSA-N_conf_3_0.chk
%Chk=ICNFHJVPAJKPHW-UHFFFAOYSA-N_conf_3_1.chk
# freq B3LYP/6-31G** SCRF=(Solvent=water) volume NMR pop=NPA density=current Geom=AllCheck Guess=Read


--Link1--
%nprocshared=4
%mem=8GB
%Oldchk=ICNFHJVPAJKPHW-UHFFFAOYSA-N_conf_3_1.chk
%Chk=ICNFHJVPAJKPHW-UHFFFAOYSA-N_conf_3_2.chk
# TD(NStates=10, Root=1) B3LYP/6-31G** SCRF=(Solvent=water) volume pop=NPA density=current Geom=AllCheck Guess=Read



