%nprocshared=4
%mem=8GB
%Chk=ICNFHJVPAJKPHW-UHFFFAOYSA-N_conf_0_0.chk
# opt=CalcFc B3LYP/6-31G** SCRF=(Solvent=water) scf=xqc 

ICNFHJVPAJKPHW-UHFFFAOYSA-N_conf_0

0 1
N 4.608364622075572 -1.610778015348812 0.4471010994393555
C 3.5975381329555653 -0.6447086004209652 0.4918827258132073
C 3.3036657641987275 0.011866453004624324 1.6886050806112958
C 2.2181492656380017 0.8903011194446656 1.7747825338168404
C 1.3800540878063396 1.0870772545123828 0.6748001817901005
S 0.009074105946099337 2.2196425571021496 0.8132475888287781
C -1.3706759871011058 1.2067476806222717 0.31145893906258043
C -2.2077633664326637 1.6512629480424008 -0.7145899759409945
C -3.300034905716545 0.8774340780202797 -1.1214707666169266
C -3.6015039886555047 -0.3253693698903748 -0.4796169317603413
N -4.619654065724348 -1.1503730567009087 -0.9693161413004041
C -2.7342289067843684 -0.7894557361884614 0.5113723028541219
C -1.6412483606644954 -0.019629004025677795 0.9238392308397262
C 1.6427877656893257 0.3948651407865717 -0.5101184723909049
C 2.729031023086528 -0.4832883045033496 -0.5894318969451476
H 4.953424491708448 -1.8003832762225225 -0.4886629814366843
H 5.360575092563233 -1.449314107415591 1.1093445233092227
H 3.919839194341879 -0.15198638200363082 2.568584955026697
H 2.027118466505579 1.4053447253823368 2.7130498323658157
H -2.0107735315198076 2.5948182676913785 -1.2175876943671793
H -3.91545217459568 1.227255752521356 -1.9459513614081643
H -4.968219758297336 -1.8191927233052227 -0.28971842794934766
H -5.36914792971154 -0.6467499313507183 -1.4330834905388112
H -2.901399762537901 -1.7571686750742916 0.976747056718325
H -0.9988722153553206 -0.39711108413564933 1.715547776338427
H 0.9993747868056347 0.5178242120447493 -1.3777836891783422
H 2.8899781537754654 -1.0389319225889282 -1.509401758029344


--Link1--
%nprocshared=4
%mem=8GB
%Oldchk=ICNFHJVPAJKPHW-UHFFFAOYSA-N_conf_0_0.chk
%Chk=ICNFHJVPAJKPHW-UHFFFAOYSA-N_conf_0_1.chk
# freq B3LYP/6-31G** SCRF=(Solvent=water) volume NMR pop=NPA density=current Geom=AllCheck Guess=Read


--Link1--
%nprocshared=4
%mem=8GB
%Oldchk=ICNFHJVPAJKPHW-UHFFFAOYSA-N_conf_0_1.chk
%Chk=ICNFHJVPAJKPHW-UHFFFAOYSA-N_conf_0_2.chk
# TD(NStates=10, Root=1) B3LYP/6-31G** SCRF=(Solvent=water) volume pop=NPA density=current Geom=AllCheck Guess=Read



