%nprocshared=4
%mem=8GB
%Chk=ZBMISJGHVWNWTE-UHFFFAOYSA-N_conf_1_0.chk
# opt=CalcFc B3LYP/6-31G** SCRF=(Solvent=water) scf=xqc 

ZBMISJGHVWNWTE-UHFFFAOYSA-N_conf_1

0 1
N -4.957869989844139 -0.3689135756884333 0.5707937213502622
C -3.6318419079790205 -0.32445954742921157 0.12546290888073355
C -3.3516597000425357 -0.1893940177531473 -1.237255968038169
C -2.036933483167241 -0.26140747113218826 -1.7059973197438065
C -0.9932919871097537 -0.4973904097646424 -0.813867049875422
O 0.2730125737356972 -0.5914292995219753 -1.3446077646155392
C 1.2904137291397473 0.03366082062872334 -0.6595431201633536
C 1.2136452867345342 1.368987642510835 -0.2618581390184839
C 2.2822417208478485 1.9414590314405085 0.42436859708917696
C 3.4325153550437792 1.1890391032690517 0.6785734264164289
C 3.549127301240312 -0.12290156905693385 0.20884211135198572
N 4.658446718241003 -0.9013591021910835 0.5622397111629066
C 2.4507344577758503 -0.7081093813438297 -0.4252434996505908
C -1.2681579975195163 -0.7150575287658796 0.5365710354844334
C -2.586071269425068 -0.641286712695534 0.9972831836754684
H -5.065910670009957 -0.16023652111231965 1.5583342530370783
H -5.6033367599059245 0.15881228641582637 -0.008111194232944584
H -4.157193384358083 -0.029882961044349357 -1.9487782082799912
H -1.8309047640396012 -0.1433574380038628 -2.765912905984191
H 0.325568159195485 1.9589069848694287 -0.46908785189391056
H 2.21887716335354 2.9698602301089734 0.7694968821675215
H 4.244161396818685 1.6411835272138116 1.2426086167720745
H 5.505049945516206 -0.3625371184776675 0.7151870849544654
H 4.812955403716276 -1.695039451264577 -0.05203628067527921
H 2.4864153469545993 -1.7473852213739023 -0.7384355362968505
H -0.47141209646616394 -0.962021114956866 1.232541475002461
H -2.788580548446124 -0.8397411848807698 2.0462982563005205


--Link1--
%nprocshared=4
%mem=8GB
%Oldchk=ZBMISJGHVWNWTE-UHFFFAOYSA-N_conf_1_0.chk
%Chk=ZBMISJGHVWNWTE-UHFFFAOYSA-N_conf_1_1.chk
# freq B3LYP/6-31G** SCRF=(Solvent=water) volume NMR pop=NPA density=current Geom=AllCheck Guess=Read


--Link1--
%nprocshared=4
%mem=8GB
%Oldchk=ZBMISJGHVWNWTE-UHFFFAOYSA-N_conf_1_1.chk
%Chk=ZBMISJGHVWNWTE-UHFFFAOYSA-N_conf_1_2.chk
# TD(NStates=10, Root=1) B3LYP/6-31G** SCRF=(Solvent=water) volume pop=NPA density=current Geom=AllCheck Guess=Read



