%nprocshared=4
%mem=8GB
%Chk=ZBMISJGHVWNWTE-UHFFFAOYSA-N_conf_0_0.chk
# opt=CalcFc B3LYP/6-31G** SCRF=(Solvent=water) scf=xqc 

ZBMISJGHVWNWTE-UHFFFAOYSA-N_conf_0

0 1
N 4.98391812134475 -0.1321313555755034 -0.41894517544360854
C 3.6463687229028836 -0.1415419707044628 -0.0072180972449772144
C 2.6407163653367984 -0.5404290869288424 -0.8924520215618821
C 1.3168776352373746 -0.6669179919184841 -0.4611234711721308
C 0.9968041150270724 -0.41941677595244775 0.8741326246544091
O -0.27627523241882773 -0.5611743805512818 1.3773500667985217
C -1.3062050040442839 -0.0122399747218859 0.6472318492671129
C -1.2871440551419995 1.3114833309283813 0.20616734629149236
C -2.365488443912005 1.8052204126180953 -0.5245353188214813
C -3.469202979321375 0.9865242335593565 -0.780341322418029
C -3.5310739641044235 -0.3135463056908738 -0.26904588442173766
N -4.5900365767286955 -1.1593774733200686 -0.6220935894530087
C -2.420999428188639 -0.820171540296431 0.4107080186437261
C 2.003914488873944 -0.10066371031071213 1.7823708215435938
C 3.3248658528031605 0.02364656715761529 1.3430030171731286
H 5.106490608033502 0.04922947914700121 -1.4101767246013792
H 5.586707777129841 0.4469724573546393 0.1568469414656227
H 2.8798533684126473 -0.7625736747808323 -1.9289328442261846
H 0.5517919969992806 -0.9774321942707374 -1.1670936760783137
H -0.43575243623668186 1.9529156705313302 0.41431613294236314
H -2.345579963994736 2.8236288044291435 -0.9029348427860601
H -4.2880358930074465 1.377428160151911 -1.3787115201708338
H -4.719749057907434 -1.9393655367915417 0.015031843211859207
H -5.458698948832083 -0.6702579152001585 -0.8135255756522601
H -2.4118989422218102 -1.8490550575792566 0.7582317958510332
H 1.765066535837193 0.04140388911643241 2.8324059899306437
H 4.102765338121933 0.24784193959933942 2.0677106310386213


--Link1--
%nprocshared=4
%mem=8GB
%Oldchk=ZBMISJGHVWNWTE-UHFFFAOYSA-N_conf_0_0.chk
%Chk=ZBMISJGHVWNWTE-UHFFFAOYSA-N_conf_0_1.chk
# freq B3LYP/6-31G** SCRF=(Solvent=water) volume NMR pop=NPA density=current Geom=AllCheck Guess=Read


--Link1--
%nprocshared=4
%mem=8GB
%Oldchk=ZBMISJGHVWNWTE-UHFFFAOYSA-N_conf_0_1.chk
%Chk=ZBMISJGHVWNWTE-UHFFFAOYSA-N_conf_0_2.chk
# TD(NStates=10, Root=1) B3LYP/6-31G** SCRF=(Solvent=water) volume pop=NPA density=current Geom=AllCheck Guess=Read



