%nprocshared=8
%mem=16GB
%Chk=RRZROWKVNHGBPP-UHFFFAOYSA-N_conf_2_0.chk
# opt=CalcFc B3LYP/6-31G** SCRF=(Solvent=water) scf=xqc 

RRZROWKVNHGBPP-UHFFFAOYSA-N_conf_2

0 1
C -8.841699602505795 0.6881653768060129 -0.3324632629326322
C -7.457290708335479 0.12224340461582692 -0.43410665892687067
C -6.37781039226604 0.9431502534934467 -0.7672379525290001
C -5.079182497490236 0.42199655241866846 -0.8369946750495703
C -4.817300553580424 -0.918905054173551 -0.5398632682638588
N -3.5574840082552277 -1.5068914347000906 -0.6514942679879291
C -2.3334942069492657 -0.7107758906101685 -0.5941993240791124
C -2.04988196736736 -0.1656808758187975 0.8095065299430136
O -0.7699378211536912 0.4745772112479469 0.8135413638256214
C -0.4509965453891071 0.9987677467275641 2.1092617037219528
C 0.9394081770924563 1.6382149942775182 2.087867456027312
O 2.000047378570383 0.6906601551199503 2.227519182192796
C 2.1746416264369763 -0.22660617999252985 1.1428074495827119
C 2.42660535988035 0.4006427125675826 -0.24037751932448656
N 3.545902625535849 1.3649424367620602 -0.27346453018702493
C 4.814001596021141 0.7480652974610568 -0.2753156980429683
C 5.452085381315886 0.46148483545183366 0.9335182081758054
C 6.6808301968495725 -0.2036479478925917 0.9535412171668917
C 7.292267828160871 -0.5958974922352158 -0.24166229703905734
C 8.594665031943936 -1.3390483962944564 -0.22504978538889076
C 6.64143671166996 -0.33494919432813125 -1.4526297113579998
C 5.411832762539481 0.33049124665279256 -1.4682022615409167
C -5.91352676316531 -1.7371630206540336 -0.23271714449875994
C -7.213797892411477 -1.224557656499053 -0.16063730549013006
H -9.59721715270933 -0.08647161225044 -0.5020286804688681
H -8.99764557729803 1.11930253169917 0.6612710315826896
H -8.999351726957007 1.466258346947524 -1.0868134336840216
H -6.537400595535363 1.9959409306301792 -0.9903735707529853
H -4.282083740769576 1.0958268890895855 -1.1343063939471898
H -3.4871713623698115 -2.384103211195464 -0.1426674571131651
H -1.4982078775287462 -1.3584120986789114 -0.889669261537633
H -2.332208695141543 0.09640811685940695 -1.335639601174094
H -2.8178182214836314 0.5567372557927136 1.106709504663282
H -2.046534980923907 -0.9880753258721493 1.5350486442243605
H -1.195357778006196 1.7613648470502958 2.363536539276619
H -0.4846149961409336 0.18979445359106267 2.8473536414739056
H 1.0238924209860336 2.3018151420074804 2.95510962681673
H 1.0914901113895654 2.2524001056922947 1.1952923340569628
H 3.0200449196366277 -0.8674383628384028 1.4150062810817388
H 1.310080113449012 -0.8972626257963177 1.0955604141040725
H 1.530836296845122 0.9441088405444388 -0.558641949396373
H 2.5770936697855675 -0.3927220774763648 -0.983483954780692
H 3.464598020288844 1.928269462678651 -1.1182424938485445
H 4.98862900940575 0.7656875861525793 1.869648991188935
H 7.152774758418305 -0.41162496976730595 1.91063227658853
H 8.41079403390388 -2.4172050230493096 -0.26424073841171636
H 9.21535879982428 -1.0519534498818859 -1.0806348488331694
H 9.16623819982874 -1.1125661344788877 0.6814488380399231
H 7.085956548509328 -0.6514631059217327 -2.3931574278291814
H 4.923633742873804 0.5143065610718349 -2.4205646198077453
H -5.764449272923932 -2.7971307236111382 -0.04097311331324787
H -8.032680384501532 -1.8910714293929924 0.10012412052247842


--Link1--
%nprocshared=8
%mem=16GB
%Oldchk=RRZROWKVNHGBPP-UHFFFAOYSA-N_conf_2_0.chk
%Chk=RRZROWKVNHGBPP-UHFFFAOYSA-N_conf_2_1.chk
# freq B3LYP/6-31G** SCRF=(Solvent=water) volume NMR pop=NPA density=current Geom=AllCheck Guess=Read


--Link1--
%nprocshared=8
%mem=16GB
%Oldchk=RRZROWKVNHGBPP-UHFFFAOYSA-N_conf_2_1.chk
%Chk=RRZROWKVNHGBPP-UHFFFAOYSA-N_conf_2_2.chk
# TD(NStates=10, Root=1) B3LYP/6-31G** SCRF=(Solvent=water) volume pop=NPA density=current Geom=AllCheck Guess=Read



