%nprocshared=8
%mem=16GB
%Chk=RRZROWKVNHGBPP-UHFFFAOYSA-N_conf_1_0.chk
# opt=CalcFc B3LYP/6-31G** SCRF=(Solvent=water) scf=xqc 

RRZROWKVNHGBPP-UHFFFAOYSA-N_conf_1

0 1
C 7.839568216258369 2.7564314663071756 -0.4427559830385376
C 6.766994657500524 1.733152782671405 -0.21690487247464219
C 6.6113286903754735 1.1430675465124007 1.039772598848138
C 5.621025241671051 0.17609508248607564 1.2573781933803145
C 4.781822381708763 -0.2497535084994029 0.22310476536026974
N 3.7279310372586933 -1.156569080738653 0.3945139013069366
C 3.737451406074608 -2.070477084124645 1.5414833896779416
C 2.5071785329145726 -2.9968550173388095 1.5316424814303369
O 1.360269482681762 -2.3779364168968913 2.1252181835135047
C 0.5781595238853968 -1.6079460976138928 1.2122831960496387
C -0.5231041623088967 -2.4694935725404425 0.5884163730159344
O -1.2522901896194356 -1.7622090428857087 -0.4152421485156138
C -2.2814650551999085 -0.9100310798647007 0.09791004641211255
C -3.5947540339839987 -1.6782492789354806 0.3056036704778692
N -4.652663824188584 -0.8396012577296239 0.8690378478460378
C -5.270689374093331 0.1590609089630717 0.1136937159468707
C -6.007173001463744 1.1464914359762208 0.7853637736011996
C -6.69765044563064 2.1458859654963414 0.09109321554194784
C -6.696911950880322 2.1632973474835677 -1.3048670668371347
C -7.406250137016215 3.2433733219240577 -2.0639060640894433
C -5.992637863655724 1.1680077908554867 -1.987616452326387
C -5.305730812535647 0.16990719164098844 -1.2845698068523526
C 4.926643065216188 0.37445161021937934 -1.0233274187828616
C 5.914935074650883 1.3398456213440646 -1.2497801852280148
H 7.814145874206804 3.5158004291358913 0.34685908972210694
H 8.823431191275978 2.275575847778466 -0.4480576494268282
H 7.703376850274998 3.27297921430627 -1.3985766777987514
H 7.254356811547971 1.4369928545418302 1.8669793343362167
H 5.529123206248157 -0.23199239738744515 2.2586118083870943
H 3.5008611029075287 -1.6183450180936816 -0.48352061884992453
H 3.7380690492324766 -1.504810169130071 2.4799541236292253
H 4.640323081639595 -2.6894861489633235 1.4899715688893655
H 2.2796149222074997 -3.3750429176949917 0.5286913137718366
H 2.733284942261915 -3.862865275982213 2.1624502788055735
H 1.1842077677323466 -1.1295405126290263 0.43692650557746965
H 0.12426227818793278 -0.794822226079325 1.7885653323126687
H -1.1880193383874738 -2.8688403443781496 1.361819197112007
H -0.07026093667736456 -3.339964664364759 0.10052342777466888
H -1.9637825139397422 -0.41705132720947025 1.0230693887859708
H -2.428529713916867 -0.11951824953660235 -0.6446447629561921
H -3.9098580965892706 -2.1712053021289415 -0.6207035756585325
H -3.419820368351506 -2.500944591988095 1.0079241156052439
H -4.458139116892813 -0.5394856286775185 1.8209047429473608
H -6.051299290389623 1.1476026722186121 1.8721311757186219
H -7.240297695487722 2.9022762586595503 0.6535657763863584
H -8.148987492878705 3.748851005509388 -1.436070328346191
H -7.937646478758276 2.8228726994910636 -2.9259888113468384
H -6.683985891297921 3.987739939079296 -2.415734545321763
H -5.980698962573656 1.1502523967704466 -3.0760629867148865
H -4.799485769880681 -0.5964557895535947 -1.864815930532853
H 4.259381066473358 0.11430628666906002 -1.8414469008297065
H 6.004387062205976 1.785174324923977 -2.2385295968934558


--Link1--
%nprocshared=8
%mem=16GB
%Oldchk=RRZROWKVNHGBPP-UHFFFAOYSA-N_conf_1_0.chk
%Chk=RRZROWKVNHGBPP-UHFFFAOYSA-N_conf_1_1.chk
# freq B3LYP/6-31G** SCRF=(Solvent=water) volume NMR pop=NPA density=current Geom=AllCheck Guess=Read


--Link1--
%nprocshared=8
%mem=16GB
%Oldchk=RRZROWKVNHGBPP-UHFFFAOYSA-N_conf_1_1.chk
%Chk=RRZROWKVNHGBPP-UHFFFAOYSA-N_conf_1_2.chk
# TD(NStates=10, Root=1) B3LYP/6-31G** SCRF=(Solvent=water) volume pop=NPA density=current Geom=AllCheck Guess=Read



