%nprocshared=5
%mem=10GB
%Chk=MBJAPGAZEWPEFB-UHFFFAOYSA-N_conf_1_0.chk
# opt=CalcFc B3LYP/6-31G** SCRF=(Solvent=water) scf=xqc 

MBJAPGAZEWPEFB-UHFFFAOYSA-N_conf_1

0 1
N -4.373995339056247 0.7164454671293181 -2.4726144599409174
C -3.127866565375075 0.46472392738759244 -1.88966659091173
C -2.3208728179922615 -0.563508354735485 -2.372590046215062
C -1.1273248852636317 -0.9017518118609896 -1.7260314782582507
C -0.7225705385074788 -0.24917137609376888 -0.5474054144138716
C 0.5368197527349234 -0.6756123043413923 0.083059180910444
C 0.5039842703832844 -1.839373346629456 0.8763976109225773
C 1.6512116227372613 -2.331767073967812 1.5083944346182245
C 2.866331833218952 -1.662031796169121 1.4004563175023623
N 4.031069463800772 -2.2216413236682047 1.928875780109032
C 2.934495390930433 -0.5485107254580434 0.5669379389351381
C 1.7837810130791976 -0.0452056378961417 -0.07270431125487742
S 2.0436302425682165 1.4223834949191696 -1.0539667581081738
O 0.8053965192676832 1.8260800103346402 -1.6818877558328613
O 2.3700595235982393 2.5426690674906425 0.06548281820427691
O 3.241814842501022 1.207101898085001 -1.8371638237585737
C -1.5820333157231656 0.7399938153373455 -0.031197214807760963
S -1.1964828976965833 1.6050509215279498 1.4683960567204801
O -2.353768908947571 2.3713111769192823 1.8782838996089677
O -1.0618718834284588 0.454870374733542 2.588666191367371
O 0.10148371151053127 2.2351347823146006 1.3106557701762762
C -2.777256353541988 1.0792644649200118 -0.6888620261545993
H -4.735424152090948 1.6481551208877905 -2.28875407373496
H -4.415734361606346 0.4868801807654925 -3.461749284708936
H -2.606992033294413 -1.1096495900129886 -3.2682783518408063
H -0.5103057536247202 -1.6911474073038322 -2.154381458627454
H -0.4301637300038055 -2.3859108013858097 1.0045672512558907
H 1.5816401929971984 -3.2495727242365002 2.087190720590654
H 4.793026846547628 -1.562930327549964 2.0615532971870008
H 3.8843567882198986 -2.810304054134322 2.742815795688388
H 3.894089695838928 -0.05757777225917248 0.4079649098080166
H 1.5469400788699195 2.686831856820701 0.601973808223754
H -1.7888222975820196 0.5843492684829239 3.234962778450185
H -3.438645955069658 1.8344205996465568 -0.26938151170967833


--Link1--
%nprocshared=5
%mem=10GB
%Oldchk=MBJAPGAZEWPEFB-UHFFFAOYSA-N_conf_1_0.chk
%Chk=MBJAPGAZEWPEFB-UHFFFAOYSA-N_conf_1_1.chk
# freq B3LYP/6-31G** SCRF=(Solvent=water) volume NMR pop=NPA density=current Geom=AllCheck Guess=Read


--Link1--
%nprocshared=5
%mem=10GB
%Oldchk=MBJAPGAZEWPEFB-UHFFFAOYSA-N_conf_1_1.chk
%Chk=MBJAPGAZEWPEFB-UHFFFAOYSA-N_conf_1_2.chk
# TD(NStates=10, Root=1) B3LYP/6-31G** SCRF=(Solvent=water) volume pop=NPA density=current Geom=AllCheck Guess=Read



