%nprocshared=5
%mem=10GB
%Chk=MBJAPGAZEWPEFB-UHFFFAOYSA-N_conf_4_0.chk
# opt=CalcFc B3LYP/6-31G** SCRF=(Solvent=water) scf=xqc 

MBJAPGAZEWPEFB-UHFFFAOYSA-N_conf_4

0 1
N 3.215340780413959 -2.2995947778111576 -3.0341748048860704
C 2.3885032363706067 -1.4817750694872145 -2.26116898579764
C 1.257891639758456 -0.8940014967989883 -2.8257439840096215
C 0.34906756954332324 -0.1848472515213145 -2.034383465250142
C 0.5193564303707557 -0.07943335799629403 -0.6423841343586285
C -0.4884683186184189 0.6587322985849939 0.13080006162826704
C -0.2600617008295392 2.019765412463178 0.40126426896865713
C -1.1698792071605075 2.774003284464092 1.1488884871744052
C -2.3558461757075206 2.2076554020780494 1.6120161154479005
N -3.192328328768885 2.9283200626110246 2.4672917261481335
C -2.579788728189632 0.8498593231134917 1.386461408333847
C -1.6765421974228556 0.08714156205393474 0.62531882139265
S -2.10036953015577 -1.6134580638984561 0.3052735750139054
O -0.9536290591808766 -2.455583858982265 0.5619101621610774
O -2.3184200247842193 -1.6707893925026653 -1.293158719432866
O -3.3873505280223895 -1.890243183950708 0.9063741894241036
C 1.6511060342002926 -0.6971614546132735 -0.07629477968026159
S 2.001666868493228 -0.590725142714152 1.667183257116951
O 3.2384524459228996 -1.2931165484637728 1.9330389033279454
O 2.3007214021336138 0.9765866726589686 1.912609150829434
O 0.8004591611501564 -0.8709805759003572 2.420553163033257
C 2.552779659879951 -1.418994990696629 -0.8775891090977058
H 4.1393517898937064 -2.457370575458747 -2.642880573227828
H 3.2526355856710696 -2.054451956890086 -4.018717885791568
H 1.0699120120411383 -0.9850280897387599 -3.8930154937534147
H -0.5141071751859126 0.27478437877467604 -2.516171121787823
H 0.6474365745908373 2.5057840540255585 0.04177418657367865
H -0.9413228244455475 3.815066063688768 1.3664670743160132
H -3.170541955421575 3.9342950094143654 2.332316848501187
H -4.1411297106695475 2.5693097841002075 2.529658610540353
H -3.4715362712587683 0.38368337816572257 1.8006644724851888
H -1.7460539038530372 -2.393534766896074 -1.6302283426858657
H 1.684539485076521 1.2758960471242333 2.616082604808307
H 3.398154964162679 -1.9297921790034225 -0.42003568746717934


--Link1--
%nprocshared=5
%mem=10GB
%Oldchk=MBJAPGAZEWPEFB-UHFFFAOYSA-N_conf_4_0.chk
%Chk=MBJAPGAZEWPEFB-UHFFFAOYSA-N_conf_4_1.chk
# freq B3LYP/6-31G** SCRF=(Solvent=water) volume NMR pop=NPA density=current Geom=AllCheck Guess=Read


--Link1--
%nprocshared=5
%mem=10GB
%Oldchk=MBJAPGAZEWPEFB-UHFFFAOYSA-N_conf_4_1.chk
%Chk=MBJAPGAZEWPEFB-UHFFFAOYSA-N_conf_4_2.chk
# TD(NStates=10, Root=1) B3LYP/6-31G** SCRF=(Solvent=water) volume pop=NPA density=current Geom=AllCheck Guess=Read



