%nprocshared=4
%mem=8GB
%Chk=JZUHIOJYCPIVLQ-LURJTMIESA-N_conf_1_0.chk
# opt=CalcFc B3LYP/6-31G** SCRF=(Solvent=water) scf=xqc 

JZUHIOJYCPIVLQ-LURJTMIESA-N_conf_1

0 1
N 3.206963778634113 0.8045579983348149 0.29570554303406094
C 1.8337853324916626 0.7245045485782473 -0.19300991135622678
C 1.200641768495641 -0.6477617447281835 0.10202956482517693
C 1.0983640328479225 -0.9192137107393102 1.6068690523435112
C -0.16592925644291381 -0.809396492344551 -0.5989876498087536
C -1.2599977429029694 0.16150156298003224 -0.14025346110190923
C -2.567103256870309 -0.09259729747846841 -0.8944289891353945
N -3.6113351386414547 0.8286289803769186 -0.4602829013636718
H 3.6113071778253896 1.700127187698649 0.025000228863529046
H 3.7740001166753885 0.08729909846894904 -0.15478236290592698
H 1.8342896283657717 0.9095845834648877 -1.2731436828774996
H 1.254923862597596 1.5254622067674044 0.27839271268050314
H 1.8558367283438137 -1.4215891414071815 -0.32254525146251284
H 0.5605862409749326 -0.11995666569270567 2.1267418873162
H 2.09218984701491 -0.9991777532680437 2.059712247548011
H 0.5764512063555893 -1.862980647271256 1.7974070797286081
H -0.5169109182005545 -1.8382367120388035 -0.4451146349554459
H -0.019344502680409773 -0.6961483173452943 -1.6810530245808466
H -1.4353160904714397 0.047301244832163705 0.9355607892153036
H -0.9394699564687902 1.1953835634358165 -0.3114793867676785
H -2.412759088024937 0.029107890759671514 -1.9720152107726738
H -2.908449535121967 -1.1199034811733724 -0.7272675220070179
H -3.7635505428015423 0.7239284964165406 0.5425062594091686
H -3.299173691995456 1.789574601373094 -0.5955613758684742


--Link1--
%nprocshared=4
%mem=8GB
%Oldchk=JZUHIOJYCPIVLQ-LURJTMIESA-N_conf_1_0.chk
%Chk=JZUHIOJYCPIVLQ-LURJTMIESA-N_conf_1_1.chk
# freq B3LYP/6-31G** SCRF=(Solvent=water) volume NMR pop=NPA density=current Geom=AllCheck Guess=Read


--Link1--
%nprocshared=4
%mem=8GB
%Oldchk=JZUHIOJYCPIVLQ-LURJTMIESA-N_conf_1_1.chk
%Chk=JZUHIOJYCPIVLQ-LURJTMIESA-N_conf_1_2.chk
# TD(NStates=10, Root=1) B3LYP/6-31G** SCRF=(Solvent=water) volume pop=NPA density=current Geom=AllCheck Guess=Read



