%nprocshared=5
%mem=10GB
%Chk=FTVFPPFZRRKJIH-UHFFFAOYSA-N_conf_0_0.chk
# opt=CalcFc B3LYP/6-31G** SCRF=(Solvent=water) scf=xqc 

FTVFPPFZRRKJIH-UHFFFAOYSA-N_conf_0

0 1
C 1.8518216684131998 -0.10143198660224868 1.2492622272355458
C 1.2925757268758027 -0.4098845022437823 -0.15046575462934755
C 2.3158879812119704 -1.3577271237017896 -0.8229651909760647
C 1.177899662880112 0.8499050075589191 -1.0341160553967017
C -0.08214041178208202 1.693995609089984 -0.8322548726238564
N 0.007496962561598684 2.6091585869286074 0.3048086484350227
C -1.3206981941955525 0.7942540186066134 -0.8192306993939076
C -1.227939032134158 -0.4658520665192513 0.06721537445633363
C -1.5512963165608815 -0.17323769210346132 1.5426083193392444
C -2.309918489497799 -1.459596243488307 -0.4217878896399853
N 0.04369930004630781 -1.1771325602053622 -0.08935391297274566
H 1.2250224265037428 0.569122030469289 1.8337894135716557
H 1.9742687701905746 -1.0191263104478971 1.8374504398331857
H 2.839647611071422 0.3692540321938318 1.1772475796314803
H 2.4715264890893986 -2.2693018765966966 -0.2329509198480051
H 1.9838254388548595 -1.6656791502730592 -1.8220650518750134
H 3.2902709458737367 -0.8679909518419969 -0.9369872226300858
H 1.176062794581946 0.5379674907167709 -2.089340467842305
H 2.073210439091207 1.476416644564204 -0.9223385825160911
H -0.16984047566300797 2.349425252881367 -1.7087724692400799
H 0.09094906625689782 2.1019329760344854 1.1784778153053221
H -0.8530386713530655 3.151011054141384 0.37471923903027005
H -2.210930822870291 1.3808892014981564 -0.5552370000866396
H -1.4842762920234394 0.47787312964383993 -1.860347157829736
H -2.558257217006326 0.2493808314820568 1.6425670604086513
H -0.8664179731938385 0.5317535945910878 2.0096937721983914
H -1.5258982694701502 -1.0909048461855952 2.1428682730722564
H -2.141472844464038 -1.758074785544499 -1.463823100452763
H -3.309472370113286 -1.0123784808946519 -0.36567676572238494
H -2.3227781056107175 -2.3739603711766377 0.1840819663955449
H 0.1202102024357924 -1.9400605125755024 0.5829229847628262


--Link1--
%nprocshared=5
%mem=10GB
%Oldchk=FTVFPPFZRRKJIH-UHFFFAOYSA-N_conf_0_0.chk
%Chk=FTVFPPFZRRKJIH-UHFFFAOYSA-N_conf_0_1.chk
# freq B3LYP/6-31G** SCRF=(Solvent=water) volume NMR pop=NPA density=current Geom=AllCheck Guess=Read


--Link1--
%nprocshared=5
%mem=10GB
%Oldchk=FTVFPPFZRRKJIH-UHFFFAOYSA-N_conf_0_1.chk
%Chk=FTVFPPFZRRKJIH-UHFFFAOYSA-N_conf_0_2.chk
# TD(NStates=10, Root=1) B3LYP/6-31G** SCRF=(Solvent=water) volume pop=NPA density=current Geom=AllCheck Guess=Read



