%nprocshared=7
%mem=14GB
%Chk=IGSBHTZEJMPDSZ-IWTMDLJTSA-N_conf_3_0.chk
# opt=CalcFc B3LYP/6-31G** SCRF=(Solvent=water) scf=xqc 

IGSBHTZEJMPDSZ-IWTMDLJTSA-N_conf_3

0 1
C 4.05311010637555 -0.3872195894071815 2.2270713058352265
C 3.3779213795783662 -0.5894686231910566 0.8668918905512139
C 1.844205096662849 -0.603436942261636 1.0521445363919928
C 1.0414498129965033 -0.11724019795021517 -0.1757107738210392
C -0.40266980310799627 -0.66390256142636 -0.09180530259479187
C -1.376345241541988 -0.20286300357566492 -1.1992468678799781
C -1.6159028245385914 1.313255053929037 -1.2244656087477024
C -2.547163269773279 1.7937346690168632 -0.11325283962575061
C -3.8979446846928845 1.0723316900172766 -0.18437677398041238
N -4.803710605331604 1.6082599869833571 0.8319733682726356
C -3.7488231151584617 -0.46425189910508485 -0.10783107767892323
C -3.4612782933969766 -0.9975374313460871 1.3008615859442965
C -2.720643084942269 -0.9613476246666673 -1.1451392277792152
C 1.7646126540175746 -0.4980158331688888 -1.4684243820236234
C 3.1686543488190946 0.11077859759792175 -1.5536078619958713
C 3.788113444643227 0.45367952233152076 -0.18807137333270038
N 5.23847194922038 0.562852111146527 -0.35244352059635414
H 5.1351369518576 -0.5387223059551509 2.162377475532369
H 3.871259586624335 0.6213256572129802 2.6134734168397613
H 3.669475465405759 -1.1057969542784651 2.959684056010858
H 3.678223627996971 -1.5822697076677232 0.5016847913431235
H 1.557131561910229 0.022554606382324247 1.9077641070032518
H 1.5488518260166626 -1.62657692993258 1.3205219547042522
H 0.9995649034040445 0.977530898377673 -0.11977965635367696
H -0.7977499933907773 -0.38441977621938384 0.8879453061532573
H -0.35915933835024677 -1.761175928762561 -0.10512767638743062
H -0.9218416537415864 -0.47650560706684114 -2.1591519822717875
H -0.6731013044761303 1.8667770724426915 -1.181510848470592
H -2.0680497743472595 1.57562412997529 -2.19058946856576
H -2.69814852838848 2.8748941043935825 -0.2271651305541717
H -2.072314640513202 1.6479372168947 0.8640245670956583
H -4.34733405020697 1.3099107392122793 -1.157904692955561
H -5.675298447971292 1.079860092100734 0.8268745261628485
H -4.401262700390422 1.4852758369774641 1.7599609144601134
H -4.714401760671528 -0.9048527493987955 -0.3964366262993946
H -4.361620607865232 -0.9345562610552778 1.9224479120150746
H -3.167044816028705 -2.0518157697439707 1.2719476377379715
H -2.6805749313371297 -0.43463051603374875 1.8158647832915507
H -3.188257688505496 -0.8547887850167716 -2.1347259424929117
H -2.544816143089507 -2.0371987369180937 -1.0221144380639793
H 1.8431923008196944 -1.5913415140475549 -1.5292702177199762
H 1.2035841564096224 -0.1791074708419809 -2.352526639138048
H 3.8052624023146047 -0.5912982116324068 -2.10891910974773
H 3.131252871997497 1.025177232123413 -2.16054521752215
H 3.4175423192354577 1.4378948053839835 0.12768898563139391
H 5.658000664925515 0.9193739451876107 0.5048362878957682
H 5.450439870526557 1.2492047245206477 -1.0758961522731805


--Link1--
%nprocshared=7
%mem=14GB
%Oldchk=IGSBHTZEJMPDSZ-IWTMDLJTSA-N_conf_3_0.chk
%Chk=IGSBHTZEJMPDSZ-IWTMDLJTSA-N_conf_3_1.chk
# freq B3LYP/6-31G** SCRF=(Solvent=water) volume NMR pop=NPA density=current Geom=AllCheck Guess=Read


--Link1--
%nprocshared=7
%mem=14GB
%Oldchk=IGSBHTZEJMPDSZ-IWTMDLJTSA-N_conf_3_1.chk
%Chk=IGSBHTZEJMPDSZ-IWTMDLJTSA-N_conf_3_2.chk
# TD(NStates=10, Root=1) B3LYP/6-31G** SCRF=(Solvent=water) volume pop=NPA density=current Geom=AllCheck Guess=Read



