%nprocshared=7
%mem=14GB
%Chk=IGSBHTZEJMPDSZ-IWTMDLJTSA-N_conf_2_0.chk
# opt=CalcFc B3LYP/6-31G** SCRF=(Solvent=water) scf=xqc 

IGSBHTZEJMPDSZ-IWTMDLJTSA-N_conf_2

0 1
C 4.088122932491505 1.314235408135471 -1.3384167398406217
C 3.2750051725972336 0.051099420185345655 -1.032163712132191
C 1.8068036841096649 0.4054598718130897 -0.7060109564089585
C 1.5191727089375364 0.4103476506321721 0.7993904448425572
C 0.1281701536517524 0.9713560619274955 1.1743725268546912
C -1.0860295852410962 0.5635753580984949 0.30910280909149745
C -1.4300572565718246 -0.9320830581777652 0.4099017205151698
C -2.849362132014881 -1.2834436710966566 -0.05761060854588757
C -3.4379783735302083 -0.2008419889843805 -0.9617643732084143
N -4.718383091702406 -0.631925340402147 -1.5195261904914443
C -3.5325214588699554 1.156953178211971 -0.2208710134414931
C -4.818821031629199 1.3430819705549588 0.5962632326048141
C -2.316492442949674 1.3968371637065913 0.7043640145011002
C 1.8123221343308595 -0.9619971135118339 1.433671978686717
C 2.9456341548605436 -1.728218263523608 0.7417563639240016
C 3.949283580515166 -0.7772771780002954 0.08795698821280909
N 5.094973262679664 -1.5166884748756004 -0.4462508108206417
H 5.11661135098004 1.0655411156831567 -1.6192932338397836
H 3.6438096811155587 1.8680916461418426 -2.172399071342043
H 4.123615890326329 1.9819112966918957 -0.470968008463135
H 3.2530066562100397 -0.5408869692602314 -1.958530366935983
H 1.1672394015317722 -0.343832851878174 -1.1896718552954781
H 1.5375769661267826 1.3712597160565132 -1.1503932750038015
H 2.237909130887138 1.1094067381953487 1.2535300150517812
H -0.07840661956352074 0.7496781405268554 2.2297265000058
H 0.21118679016692213 2.066078154676744 1.1159305757947329
H -0.8564628079488948 0.804344043089035 -0.7364200945235804
H -1.320399780709262 -1.282423347751906 1.4434089051526087
H -0.7134326213430471 -1.5028725367086435 -0.19218621809640848
H -3.4918663204916167 -1.4246901884879823 0.821417374660212
H -2.821703142609585 -2.252039414212643 -0.5727258846757919
H -2.756765638939766 -0.07207937451187676 -1.813753850203301
H -5.0617848968665635 0.07202419079120002 -2.1716797447080185
H -4.589762439002536 -1.4869202537487343 -2.0589427305062955
H -3.5307317094056025 1.9428598149071556 -0.989281915671981
H -4.939383874072119 0.5490723163792891 1.3405872543097253
H -4.802802091109762 2.3023473821858267 1.125616400233565
H -5.7043784797514645 1.346807871430213 -0.04720413520214917
H -2.5781519189094073 1.1612148909884525 1.745085926199111
H -2.0732023782365188 2.4669212223401575 0.6875411953867693
H 2.081402310769337 -0.8004990647759189 2.485842982839863
H 0.9299773346668833 -1.6055492187638647 1.4531016189746804
H 3.4378017968350285 -2.3760852366861784 1.4776891805960657
H 2.516603326687255 -2.393602166726275 -0.01951816897827968
H 4.336435001639906 -0.10026356611665416 0.8603656917515361
H 5.5194109699194955 -2.0713920475141734 0.29638256559844356
H 4.776805699431458 -2.184893297633729 -1.1474233074523723


--Link1--
%nprocshared=7
%mem=14GB
%Oldchk=IGSBHTZEJMPDSZ-IWTMDLJTSA-N_conf_2_0.chk
%Chk=IGSBHTZEJMPDSZ-IWTMDLJTSA-N_conf_2_1.chk
# freq B3LYP/6-31G** SCRF=(Solvent=water) volume NMR pop=NPA density=current Geom=AllCheck Guess=Read


--Link1--
%nprocshared=7
%mem=14GB
%Oldchk=IGSBHTZEJMPDSZ-IWTMDLJTSA-N_conf_2_1.chk
%Chk=IGSBHTZEJMPDSZ-IWTMDLJTSA-N_conf_2_2.chk
# TD(NStates=10, Root=1) B3LYP/6-31G** SCRF=(Solvent=water) volume pop=NPA density=current Geom=AllCheck Guess=Read



