%nprocshared=7
%mem=14GB
%Chk=IGSBHTZEJMPDSZ-IWTMDLJTSA-N_conf_0_0.chk
# opt=CalcFc B3LYP/6-31G** SCRF=(Solvent=water) scf=xqc 

IGSBHTZEJMPDSZ-IWTMDLJTSA-N_conf_0

0 1
C 3.8138685681956375 2.1100800190659608 0.3828473462532854
C 3.342753522082176 0.6536949062226953 0.44026454222520667
C 1.8086568216450698 0.5838637425963464 0.4724024298863887
C 1.2854293394128347 -0.852588502869196 0.6981894205358042
C -0.10098463309018348 -1.0880085719919619 0.0458676951041349
C -1.318887842472327 -0.5168391910776562 0.8144183987208524
C -1.3431444778646762 1.0232130873181078 0.8488431094140974
C -2.7531404531134864 1.564938516990282 1.0613404271623341
C -3.6990224194901797 1.1891822337575035 -0.09592910201181834
N -5.062480585972497 1.1947401729232303 0.44021396784383304
C -3.2759074731532953 -0.13741903520295098 -0.7806660263678921
C -4.3990968818172576 -0.8238549067153239 -1.5604742953696769
C -2.636125798100563 -1.0940932349401544 0.233206208183505
C 2.3034017560363833 -1.9049892665954222 0.196824292715864
C 3.0520487598270143 -1.4217747580448723 -1.0396192230614405
C 3.8986420481099944 -0.1713137838983546 -0.746049021566668
N 5.286148364564299 -0.555461579931993 -0.46707977593914557
H 4.905529629599225 2.1781429035732467 0.41711453855669933
H 3.470829128090008 2.6013121596767164 -0.534027945521029
H 3.4218366005079264 2.6767552326510584 1.2342562717747607
H 3.7112438849027973 0.2323719127630692 1.3868475981105952
H 1.4404983397382582 1.2292641637055464 1.2769071407385386
H 1.4162746584966484 0.9925943506343775 -0.46744566028297446
H 1.1763827015272412 -1.016920869335249 1.7786371675157138
H -0.25331934260515315 -2.172961082924608 -0.02690546331410033
H -0.10050377026208479 -0.7159115150564344 -0.9864798052244095
H -1.2492597727429102 -0.8815973374493397 1.848455983603426
H -0.7078811862732979 1.3795843676686332 1.6663114570490667
H -0.9403157020309664 1.4406625038456746 -0.08159961600578039
H -2.722341435056611 2.6564646999297694 1.1681816019200404
H -3.1267455032161005 1.174868666657659 2.0184021843353346
H -3.6484609116629563 1.981353862196005 -0.8536930999943642
H -5.184856428166504 0.41001773150640786 1.079261882821887
H -5.7329926304441825 1.0533895109398101 -0.31355658830271366
H -2.507861887246441 0.11530011796326826 -1.5259924680494659
H -4.004015989700667 -1.6695803825558684 -2.1340141613094925
H -4.861869464694442 -0.13033906241419424 -2.270297906973418
H -5.176881451255159 -1.213822117181624 -0.8957986452613932
H -2.4605149615290394 -2.076258935214926 -0.22162775632907444
H -3.3410807118300037 -1.269389292290011 1.0569983298466068
H 1.811887164252622 -2.861413423491089 -0.01437871377350917
H 3.0281037302714084 -2.1131004485231673 0.9949459011948263
H 2.325900994124898 -1.184306827281893 -1.8280916290710556
H 3.6701310681979087 -2.2334927673306937 -1.4430063277735465
H 3.907036379766056 0.44342167867900295 -1.6551469894591457
H 5.860762372890454 0.2778855704476859 -0.3523246955613077
H 5.670325881550481 -1.0576652193957 -1.266532978987867


--Link1--
%nprocshared=7
%mem=14GB
%Oldchk=IGSBHTZEJMPDSZ-IWTMDLJTSA-N_conf_0_0.chk
%Chk=IGSBHTZEJMPDSZ-IWTMDLJTSA-N_conf_0_1.chk
# freq B3LYP/6-31G** SCRF=(Solvent=water) volume NMR pop=NPA density=current Geom=AllCheck Guess=Read


--Link1--
%nprocshared=7
%mem=14GB
%Oldchk=IGSBHTZEJMPDSZ-IWTMDLJTSA-N_conf_0_1.chk
%Chk=IGSBHTZEJMPDSZ-IWTMDLJTSA-N_conf_0_2.chk
# TD(NStates=10, Root=1) B3LYP/6-31G** SCRF=(Solvent=water) volume pop=NPA density=current Geom=AllCheck Guess=Read



