%nprocshared=7
%mem=14GB
%Chk=IGSBHTZEJMPDSZ-IWTMDLJTSA-N_conf_4_0.chk
# opt=CalcFc B3LYP/6-31G** SCRF=(Solvent=water) scf=xqc 

IGSBHTZEJMPDSZ-IWTMDLJTSA-N_conf_4

0 1
C 4.7039878218543585 -0.9420318584425019 -0.21832359036278787
C 3.557783524571232 -0.6565479103869499 0.7637641089335121
C 2.298957753195862 -1.465749236901712 0.37067415553236055
C 1.1186778159328454 -0.6117000000673706 -0.14718684359035306
C 0.07261878423888278 -1.5170487466090266 -0.8375564266850369
C -1.4129818221356727 -1.1393674406381074 -0.6404837427025599
C -1.8796640374817635 -1.373426451659044 0.8038768051932829
C -3.3727745053253204 -1.0888323098457038 0.9571228451827637
C -3.733704597272933 0.3305423895666022 0.4974776232021959
N -5.180541162421435 0.5097184224589594 0.6347601446013892
C -3.2622890739499053 0.5840554219663316 -0.9531183933342283
C -3.537977318492663 2.018199477781948 -1.418780055491603
C -1.7564058007708048 0.285923908565826 -1.088507605982447
C 1.657353559154111 0.47405001206020503 -1.089516924559528
C 2.6371310109878596 1.4246313009443858 -0.39176952639716744
C 3.2325867192589874 0.843838110493015 0.8978786080284472
N 4.39400445526157 1.6322908674003014 1.3090100840689205
H 4.9266818718531935 -2.014573727681695 -0.2444666668481102
H 5.623610593359021 -0.4298708417688116 0.08180874774810118
H 4.45760115163958 -0.6285947001276689 -1.237274479444381
H 3.892433336438175 -1.0257503857705355 1.743397725730042
H 1.9507089370158743 -2.019446913159242 1.2530675433923792
H 2.561716113577981 -2.230151496243328 -0.3722548316433041
H 0.6565150660967565 -0.12307257518999996 0.7180437203503459
H 0.18866329502900508 -2.548284230374731 -0.4774272832167498
H 0.28239667127252266 -1.5575463362600912 -1.9145600697240062
H -1.9852685330087108 -1.8287769897243527 -1.2783731763782673
H -1.6814843207512353 -2.4109585524473216 1.0980763319767812
H -1.3244590248075976 -0.7340292526429302 1.499549958079901
H -3.6549698618377597 -1.2291235194997219 2.008220405024615
H -3.9393855824666293 -1.8292211952798347 0.37658835034264215
H -3.238391372629061 1.0478296279615742 1.1649752280019985
H -5.4286096580666126 1.4818259167095633 0.45833012321644534
H -5.461043952838232 0.31790972082797775 1.5958461806957243
H -3.8035066891987324 -0.09464565280946267 -1.6273054844246517
H -3.07716373401785 2.7489666084691833 -0.7455974737987583
H -4.611472392112898 2.225291022445934 -1.4650308712082423
H -3.1341778653679335 2.1835799903748634 -2.42359827246861
H -1.19852910583187 1.01436130070801 -0.48753747777333534
H -1.4500991415563267 0.4222249403345913 -2.1329621613099037
H 2.1700904242621997 -0.004903487199164534 -1.9341503225173444
H 0.8490560964912951 1.064333298543757 -1.5310189510325365
H 2.118582230694812 2.361736045262583 -0.14961676589387396
H 3.42612097551378 1.695084738862046 -1.105749681507649
H 2.4850324981075103 0.9511981382897844 1.6953426938368241
H 4.746304404331064 1.2855122829247105 2.200132356350273
H 4.116284442202621 2.600550267777492 1.4633728581598624


--Link1--
%nprocshared=7
%mem=14GB
%Oldchk=IGSBHTZEJMPDSZ-IWTMDLJTSA-N_conf_4_0.chk
%Chk=IGSBHTZEJMPDSZ-IWTMDLJTSA-N_conf_4_1.chk
# freq B3LYP/6-31G** SCRF=(Solvent=water) volume NMR pop=NPA density=current Geom=AllCheck Guess=Read


--Link1--
%nprocshared=7
%mem=14GB
%Oldchk=IGSBHTZEJMPDSZ-IWTMDLJTSA-N_conf_4_1.chk
%Chk=IGSBHTZEJMPDSZ-IWTMDLJTSA-N_conf_4_2.chk
# TD(NStates=10, Root=1) B3LYP/6-31G** SCRF=(Solvent=water) volume pop=NPA density=current Geom=AllCheck Guess=Read



