%nprocshared=7
%mem=14GB
%Chk=QFTYSVGGYOXFRQ-UHFFFAOYSA-N_conf_1_0.chk
# opt=CalcFc B3LYP/6-31G** SCRF=(Solvent=water) scf=xqc 

QFTYSVGGYOXFRQ-UHFFFAOYSA-N_conf_1

0 1
N -7.279572494065362 1.6426062108669188 0.5765404381101851
C -5.919291568875036 1.4636555823148893 0.07960925522792887
C -5.6914080417320925 0.005432811752593079 -0.31710675128266275
C -4.317007676241571 -0.2430212402310377 -0.9465432200879166
C -3.1551914883918717 -0.03218302429918098 0.02689629961450036
C -1.8177657946486727 -0.40191485299787333 -0.6188390493702416
C -0.654101613238511 -0.18911653222982053 0.3509093790480869
C 0.6826221276844847 -0.5578064224376804 -0.29464549663443224
C 1.8461925179713865 -0.34507562469322545 0.6752134466024758
C 3.183874095595846 -0.7128589968199787 0.028966127368331963
C 4.346334411162124 -0.4951859359238914 0.9999791570773549
C 5.69859889104695 -0.9578593736144246 0.444507702485249
C 6.174655060896719 -0.23077990904799678 -0.8148345737684467
N 6.319341655553346 1.2028500527854729 -0.5951570083045673
H -7.423071908806465 1.05941751054977 1.4000435206017712
H -7.402213552791151 2.6064500647019755 0.8841866033229926
H -5.2161070000108145 1.768473128710351 0.8607793323612555
H -5.766419850819258 2.118180087867792 -0.7849172271619896
H -5.8157193787133945 -0.646020803128002 0.5571858427461265
H -6.456781108325922 -0.2947066631630282 -1.044641875868094
H -4.292250096163058 -1.2763752258065015 -1.314439771547857
H -4.1903850003010925 0.40628105103401696 -1.8214136116439565
H -3.1194648620012115 1.014537849740072 0.34865398190289015
H -3.311055085849351 -0.6438325138748054 0.9236747768092907
H -1.8413449433020566 -1.4507128098531041 -0.9389101908141524
H -1.663384068903534 0.2074014987874124 -1.5176850723646522
H -0.6301630010657184 0.8594838878551188 0.6716252802689506
H -0.808722943414211 -0.7987032536827481 1.2495092769620348
H 0.8370510891628036 0.05196094663218398 -1.1931605397740526
H 0.6589566050801963 -1.6063630413299308 -0.6155039384761563
H 1.8698837061642513 0.7033621416922926 0.9965388375779037
H 1.6914405043999605 -0.9554105543293433 1.5732751962245592
H 3.3260656299508966 -0.10270157201277802 -0.8699579362741925
H 3.161638133940994 -1.762156050774829 -0.2889731638043163
H 4.3983390818082215 0.5622288500015736 1.2851276447579745
H 4.1506669737353565 -1.055252601458758 1.9231344990487942
H 6.453568875573337 -0.8407416739765747 1.2327152294259762
H 5.646171301364734 -2.0321398709107736 0.2277654225519447
H 5.482186815158037 -0.4036139513990443 -1.6445203456529351
H 7.143834936874613 -0.642729880044699 -1.1180324559935266
H 6.70893794216339 1.6358095003253958 -1.4314051395897436
H 6.991061122372825 1.3691312024218962 0.15306105256461994


--Link1--
%nprocshared=7
%mem=14GB
%Oldchk=QFTYSVGGYOXFRQ-UHFFFAOYSA-N_conf_1_0.chk
%Chk=QFTYSVGGYOXFRQ-UHFFFAOYSA-N_conf_1_1.chk
# freq B3LYP/6-31G** SCRF=(Solvent=water) volume NMR pop=NPA density=current Geom=AllCheck Guess=Read


--Link1--
%nprocshared=7
%mem=14GB
%Oldchk=QFTYSVGGYOXFRQ-UHFFFAOYSA-N_conf_1_1.chk
%Chk=QFTYSVGGYOXFRQ-UHFFFAOYSA-N_conf_1_2.chk
# TD(NStates=10, Root=1) B3LYP/6-31G** SCRF=(Solvent=water) volume pop=NPA density=current Geom=AllCheck Guess=Read



