%nprocshared=7
%mem=14GB
%Chk=QFTYSVGGYOXFRQ-UHFFFAOYSA-N_conf_3_0.chk
# opt=CalcFc B3LYP/6-31G** SCRF=(Solvent=water) scf=xqc 

QFTYSVGGYOXFRQ-UHFFFAOYSA-N_conf_3

0 1
N -5.504471447355082 -1.0286242886883437 0.2762745788702233
C -5.501865194112528 0.31766651905888504 -0.282516480536945
C -4.468452985769419 1.2179322551201979 0.39816851596934366
C -3.013307185320736 0.7415711711932923 0.29224011652245324
C -2.517606107387622 0.6384357795855596 -1.149322598688053
C -0.9967486361265058 0.5068214243320103 -1.2911110210175425
C -0.39724290517730304 -0.8001704819853773 -0.7604813484817367
C 0.001593022182067545 -0.8179346561258382 0.7198145492459295
C 0.986462243282788 0.26715090502061245 1.1688049075363374
C 2.2890620278064384 0.364176917550497 0.36758752191966715
C 3.1399485732962735 -0.9064573559654019 0.4389888044273937
C 4.436488923812229 -0.81550469608377 -0.373513224691131
C 5.4343014154919835 0.19801791872911617 0.1878469821777936
N 6.683938674083411 0.17193492096559965 -0.5668198041714299
H -6.254892833631561 -1.5705410522899195 -0.15004783283676285
H -5.71265986273718 -0.9857833255300225 1.273038863323399
H -5.3144737348984075 0.2635522498042982 -1.359574221535268
H -6.497143504538532 0.7575511838021562 -0.1530711416592433
H -4.546224681169879 2.224433025487703 -0.03164827923896166
H -4.722985269817728 1.3183343491201338 1.4611968087141542
H -2.383126328440842 1.4489020720085608 0.8448964845106074
H -2.9181939434831747 -0.22887149107757754 0.7888219452395836
H -2.998785356103597 -0.21045455568432164 -1.6492257392319516
H -2.824872025437399 1.5384151314635282 -1.6969888927937409
H -0.502769556433635 1.3820886882391317 -0.8583333634118222
H -0.7802532117836487 0.5476163429382511 -2.367172353619724
H -1.0932625690711197 -1.6267798918255512 -0.9494980058234458
H 0.49646528402872736 -1.0279663184400756 -1.354734398336191
H 0.43096692602602177 -1.8023442840569284 0.9435966053281368
H -0.8906251480261507 -0.7472950393840047 1.348547449399712
H 1.2335972525223449 0.0899034506707598 2.2234198018143627
H 0.4869510785718394 1.2426720609934956 1.1426906352844857
H 2.8590772313120656 1.2087060299071168 0.7712863803086338
H 2.071833716503653 0.6102842073915057 -0.6778169855432387
H 3.3764207350128093 -1.1365915920285767 1.4848253436601782
H 2.5656416015479677 -1.7547624466012735 0.05001241162893515
H 4.198104917615772 -0.5704848487511389 -1.416209210003344
H 4.89996255787289 -1.8106130392682076 -0.38208561732791396
H 5.027076080904727 1.212360062053443 0.14176109545051765
H 5.6497883208254684 -0.02275076446625897 1.2386734831280521
H 7.080444173709033 -0.7668092520755364 -0.5371189186287963
H 6.491837730412731 0.36221271489197543 -1.5498237584141803


--Link1--
%nprocshared=7
%mem=14GB
%Oldchk=QFTYSVGGYOXFRQ-UHFFFAOYSA-N_conf_3_0.chk
%Chk=QFTYSVGGYOXFRQ-UHFFFAOYSA-N_conf_3_1.chk
# freq B3LYP/6-31G** SCRF=(Solvent=water) volume NMR pop=NPA density=current Geom=AllCheck Guess=Read


--Link1--
%nprocshared=7
%mem=14GB
%Oldchk=QFTYSVGGYOXFRQ-UHFFFAOYSA-N_conf_3_1.chk
%Chk=QFTYSVGGYOXFRQ-UHFFFAOYSA-N_conf_3_2.chk
# TD(NStates=10, Root=1) B3LYP/6-31G** SCRF=(Solvent=water) volume pop=NPA density=current Geom=AllCheck Guess=Read



