%nprocshared=8
%mem=16GB
%Chk=FZIHVNZJLMYTFH-QPLCGJKRSA-N_conf_4_0.chk
# opt=CalcFc B3LYP/6-31G** SCRF=(Solvent=water) scf=xqc 

FZIHVNZJLMYTFH-QPLCGJKRSA-N_conf_4

0 1
N 4.855074503499262 -0.668826039365572 -3.6341993649860984
C 3.7762417908939536 -0.48440346745348617 -2.760668483964873
C 2.7541167043028896 -1.4330491364076543 -2.6946270840540825
C 1.731311201814319 -1.3170395290864059 -1.7481950488479128
C 1.7320977177960883 -0.26134210737139846 -0.828595151755337
C 0.6576668475133765 -0.13197344201393416 0.20145275076186817
C 1.0273503698029967 -0.3196219754980371 1.6372452199669574
C 1.509884619496892 -1.561014856023706 2.0751934429237138
C 1.8801693965568174 -1.7460652869714015 3.4087513762025696
C 1.778917683388121 -0.6909836330406562 4.313844665508067
C 1.3145531117917173 0.5517454018624949 3.8862646546352297
C 0.947058561613291 0.7395234514499743 2.5524253109126795
C -0.6312138838260279 0.150819011377281 -0.16464851048743445
C -1.7312489415500352 0.1845142126766259 0.8455923198458681
C -2.130344112270956 -0.9707599985939341 1.528026781348323
C -3.1768067199138166 -0.9205740983010305 2.4549248180717758
C -3.8794282795153294 0.26575176372616777 2.675467760189408
N -4.847185926579828 0.3362101683190797 3.6843718604291675
C -3.451786995385733 1.4267655784161644 2.02828577097177
C -2.4044523944634846 1.3846713919351232 1.1021109809581981
C -0.9753365454486792 0.4382336625316788 -1.5902136323956917
C -0.5135368519051807 1.599239063078787 -2.2264594088168312
C -0.8601419647395743 1.8644557476259012 -3.552498118834745
C -1.6793174756551494 0.9779858548389412 -4.249864818097569
C -2.1561892688587854 -0.17168974182563232 -3.6221204681232932
C -1.8099608445186204 -0.43903578693845446 -2.296258826543418
C 2.7977445204930143 0.6455823706955992 -0.8450183467274053
C 3.818214000127433 0.5219065448369521 -1.7934514721459993
H 4.612764117660743 -1.1849629226965286 -4.473995958146291
H 5.360959732756786 0.1863095813047289 -3.840999784909991
H 2.7410029983585593 -2.273150162438735 -3.383197413837837
H 0.9385722575007278 -2.0602252767133984 -1.7300082860291748
H 1.5989916463193736 -2.391430835592502 1.3790603267681134
H 2.249177654413643 -2.7130898154518186 3.7395489130588095
H 2.0640229706829225 -0.8365568814311847 5.3525365351222876
H 1.2357084458544085 1.3754450971128742 4.590763899108207
H 0.5911463086647335 1.7154006881238195 2.232224564280035
H -1.6186883084546346 -1.9143321020204505 1.3573247690467714
H -3.4376606801262515 -1.8221080978273585 3.0020490942894753
H -5.308592003431495 -0.5487092065651694 3.8693746998979686
H -5.506478611465646 1.0984593796154936 3.5647659960592364
H -3.9331210554975486 2.37848025055847 2.2354565620697597
H -2.1085242864956815 2.2990327208233308 0.5937574600899497
H 0.12261185562157577 2.30023009584093 -1.6921476140734348
H -0.49027250317691967 2.7624127359175077 -4.03994672378631
H -1.9487629474082873 1.1845332515568585 -5.282273006261364
H -2.799143590511412 -0.8606943106339904 -4.163435302836737
H -2.1928713941615867 -1.3362598021965875 -1.8165770246763333
H 2.8475176415310517 1.4479169588751084 -0.11350871325613571
H 4.648188926907709 1.2222735293586584 -1.767911968921465


--Link1--
%nprocshared=8
%mem=16GB
%Oldchk=FZIHVNZJLMYTFH-QPLCGJKRSA-N_conf_4_0.chk
%Chk=FZIHVNZJLMYTFH-QPLCGJKRSA-N_conf_4_1.chk
# freq B3LYP/6-31G** SCRF=(Solvent=water) volume NMR pop=NPA density=current Geom=AllCheck Guess=Read


--Link1--
%nprocshared=8
%mem=16GB
%Oldchk=FZIHVNZJLMYTFH-QPLCGJKRSA-N_conf_4_1.chk
%Chk=FZIHVNZJLMYTFH-QPLCGJKRSA-N_conf_4_2.chk
# TD(NStates=10, Root=1) B3LYP/6-31G** SCRF=(Solvent=water) volume pop=NPA density=current Geom=AllCheck Guess=Read



