%nprocshared=10
%mem=20GB
%Chk=PICLBAFTFYTURY-HQZQWKOLSA-N_conf_3_0.chk
# opt=CalcFc B3LYP/6-31G** SCRF=(Solvent=water) scf=xqc 

PICLBAFTFYTURY-HQZQWKOLSA-N_conf_3

0 1
C 6.831146546402681 2.799898270911116 0.5730558909085974
C 6.46547385707276 1.643474203444667 1.496948371095229
C 6.134763908771509 0.30852463796810237 0.7978230826163051
N 4.95978200757899 0.4912010603157139 -0.06809416172605408
C 4.204823621416938 -0.7441557192254329 -0.32581704313943877
C 3.306382595949315 -1.1343424498979482 0.8659528992699088
C 1.8850774533563976 -0.5993673749723556 0.7203704157954136
C 1.1790669726394518 -1.188199007686293 -0.5172490809088667
C 0.030967269427713943 -0.276033543499325 -1.0081267354040586
C -1.0594397784401985 0.05388505818272414 0.03576041363526215
C -1.9599337139641604 1.1843008121046272 -0.5084456997472466
C -3.307902980823455 1.1996354624942152 0.20162466996788406
C -4.117644705348047 -0.07515608455754667 -0.11939813639522372
N -5.086065766678045 -0.3225478741349389 0.9587152967566811
C -6.462721058942286 -0.6276464094026073 0.5376520254847555
C -6.549346313687735 -1.8767675577250411 -0.34464140638627017
C -7.203776549879194 0.5563275419639673 -0.11918485880288701
C -7.3007475402428215 1.7881760194834766 0.772035950172568
C -3.194680538203287 -1.2963320903803297 -0.31118380016152075
C -1.8866613805086088 -1.1759330295719905 0.4677583086123938
C 2.175023511316774 -1.47331711538239 -1.6637705522750965
C 3.378947214969303 -0.5387958524472484 -1.6142403201308542
C 7.334780388837737 -0.22658696674063766 0.008846257405708529
H 7.727710922260285 2.579531054190997 -0.013194910473610327
H 7.038323078959137 3.6959329760974344 1.1662141223075837
H 6.015527020342655 3.040854829762885 -0.11538264719699183
H 5.60723227833508 1.9475723623297236 2.11144210657169
H 7.296781814354599 1.4805167088886522 2.194619367653725
H 5.910425323215349 -0.40906837961799647 1.5965927003010587
H 5.262476211392025 0.9020676453678963 -0.95162026598341
H 4.900776173333924 -1.5713847250240978 -0.5122240926354817
H 3.7263017317474 -0.7933842606281181 1.8189710904268455
H 3.2671865387095123 -2.2297000529179316 0.9362236554901586
H 1.3104141729896785 -0.8487530713799665 1.6205323530187978
H 1.9195052208646486 0.496280875899487 0.6620554301465316
H 0.7505749108419235 -2.1578580326466428 -0.23691556267889066
H -0.4455616999212663 -0.7443438370996338 -1.8794988617069126
H 0.46748947797481477 0.6656711506591843 -1.367558297250925
H -0.5676325645193873 0.44193897125765114 0.9363689430834463
H -1.4553929030643469 2.147484594794632 -0.3713255860988003
H -2.1227400425579948 1.067862299854018 -1.587047914666243
H -3.1300892924540578 1.2983467137512894 1.2811770949869716
H -3.8832409945774486 2.083667791291429 -0.09996309121267923
H -4.6305000273611 0.10351923130643707 -1.0718319324970513
H -5.109051117745286 0.46497877570523644 1.6051578485799507
H -7.0050123412902385 -0.8714532048868425 1.4606385137396098
H -6.075833724271513 -1.7309521211079897 -1.3203622786508709
H -6.076675075060653 -2.7346932027303046 0.14434513310689354
H -7.5963779883826765 -2.144345945541848 -0.5246470400539996
H -6.734692674887076 0.8358571072823102 -1.0693848658974465
H -8.225140002290651 0.2380790495635981 -0.36535448376520613
H -7.93523771114598 2.5441727512599446 0.298350856364496
H -6.320348623004194 2.241988575463927 0.9411800975618279
H -7.7386635121245435 1.5361949867288422 1.7422572870404358
H -3.7017917248065184 -2.225959297529218 -0.02822038465717799
H -2.96255664209888 -1.4004592448899729 -1.3790417369884667
H -2.1230276250966607 -1.0873423512561253 1.5360636410950548
H -1.3162764550657988 -2.103743471294877 0.3642191962643971
H 2.5305125809669895 -2.509050757545397 -1.5821477442241776
H 1.6807366558520196 -1.3983829330145923 -2.6390173203685845
H 4.021087802325686 -0.7094192463494817 -2.487473955993124
H 3.0214446276300997 0.497045977502375 -1.6928527785759822
H 7.146992731301894 -1.2399391753889983 -0.3609840466256839
H 7.572637769510031 0.4026199543211036 -0.8563461301807017
H 8.2243906777961 -0.2721930636736847 0.645721310153067


--Link1--
%nprocshared=10
%mem=20GB
%Oldchk=PICLBAFTFYTURY-HQZQWKOLSA-N_conf_3_0.chk
%Chk=PICLBAFTFYTURY-HQZQWKOLSA-N_conf_3_1.chk
# freq B3LYP/6-31G** SCRF=(Solvent=water) volume NMR pop=NPA density=current Geom=AllCheck Guess=Read


--Link1--
%nprocshared=10
%mem=20GB
%Oldchk=PICLBAFTFYTURY-HQZQWKOLSA-N_conf_3_1.chk
%Chk=PICLBAFTFYTURY-HQZQWKOLSA-N_conf_3_2.chk
# TD(NStates=10, Root=1) B3LYP/6-31G** SCRF=(Solvent=water) volume pop=NPA density=current Geom=AllCheck Guess=Read



