%nprocshared=5
%mem=10GB
%Chk=CAPCBAYULRXQAN-VIFPVBQESA-N_conf_4_0.chk
# opt=CalcFc B3LYP/6-31G** SCRF=(Solvent=water) scf=xqc 

CAPCBAYULRXQAN-VIFPVBQESA-N_conf_4

0 1
C 3.8340969247448955 1.9419121682305733 -0.38028544057409736
C 2.650957713560055 0.9811615744754614 -0.5017596510489958
N 3.1315172123532076 -0.2758499636872219 -1.0731276678084334
C 1.9858208774432995 0.7771090395027846 0.8708588899036922
C 0.7698300400258504 -0.1608261759526793 0.8887247191290486
C -0.3721778638928602 0.3106250088413479 -0.024034719178856294
N -1.5799146868268212 -0.5231905888870747 0.15108789219743105
C -2.788273362739603 0.21367613766108493 -0.2692665609327325
C -3.239325688483577 1.2205795556295704 0.7852963327861194
C -1.4532374629996003 -1.786089796896331 -0.603434227243054
C -2.3830858153170693 -2.8695421924485123 -0.06481833139902318
H 4.6014432007727155 1.5544770092591234 0.2995578392524876
H 3.504463118382603 2.913536779459909 0.003434398972040098
H 4.302295375765686 2.113736745692651 -1.3560777934647903
H 1.9327556078753942 1.4255013867819897 -1.198997932923528
H 2.357187468850868 -0.9256443615430525 -1.1972184860728918
H 3.7761266321520903 -0.7261726942883739 -0.42368586932013175
H 1.6753509142394438 1.7547096455633093 1.2625075145726627
H 2.725926740391773 0.38666019766362536 1.582227716472124
H 1.0902476805454553 -1.1753901884794353 0.6308757634278533
H 0.4020338841151832 -0.2108849015831152 1.9221618230824935
H -0.06441198043046768 0.3165790582232745 -1.0766794830446422
H -0.5802545615709882 1.3525749084151502 0.24290512366381253
H -2.6310074418543232 0.7157198090544202 -1.2323416348018743
H -3.6295098535074874 -0.47298437013988665 -0.4128922381203224
H -4.189485269158062 1.6737593310090542 0.4832121959682321
H -2.5195085718422114 2.032029439845281 0.923145598868414
H -3.395907499977843 0.7312674593943183 1.7525967699950313
H -1.633648684275376 -1.6276321317318991 -1.674274662495504
H -0.4370678567692267 -2.1865821836577655 -0.5189110405696575
H -2.215411265909045 -3.0336550216108957 1.0050253654400663
H -2.1893559597117367 -3.815494096456333 -0.5816216797001352
H -3.438469565954735 -2.6256765873407373 -0.21419052502486682


--Link1--
%nprocshared=5
%mem=10GB
%Oldchk=CAPCBAYULRXQAN-VIFPVBQESA-N_conf_4_0.chk
%Chk=CAPCBAYULRXQAN-VIFPVBQESA-N_conf_4_1.chk
# freq B3LYP/6-31G** SCRF=(Solvent=water) volume NMR pop=NPA density=current Geom=AllCheck Guess=Read


--Link1--
%nprocshared=5
%mem=10GB
%Oldchk=CAPCBAYULRXQAN-VIFPVBQESA-N_conf_4_1.chk
%Chk=CAPCBAYULRXQAN-VIFPVBQESA-N_conf_4_2.chk
# TD(NStates=10, Root=1) B3LYP/6-31G** SCRF=(Solvent=water) volume pop=NPA density=current Geom=AllCheck Guess=Read



