%nprocshared=4
%mem=8GB
%Chk=JTUXBPXZECVPKS-UHFFFAOYSA-N_conf_0_0.chk
# opt=CalcFc B3LYP/6-31G** SCRF=(Solvent=water) scf=xqc 

JTUXBPXZECVPKS-UHFFFAOYSA-N_conf_0

0 1
O 0.9343179758635167 -0.01763160021744688 -2.293780907791286
C 1.6229998106700525 -0.2650671291655075 -1.139064088932908
C 2.902737871720888 0.2626815208632105 -0.9559783403286302
C 3.6322412202703074 -0.03714595077916402 0.20049772627632265
N 4.863069315416097 0.5873759997875551 0.4384740665409283
C 3.0249933945954477 -0.794396993345369 1.207961168943297
C 1.7457013564764816 -1.3256719056885635 1.0279236625066845
C 1.039763114371713 -1.0480125594402017 -0.14153425657618465
O -0.20272526939908822 -1.6138645774868958 -0.2892831156347032
C -1.2986326631439615 -0.7814020915055596 -0.20614999408199472
C -2.458351749778573 -1.2460866755356224 -0.827027156085925
C -3.635305684914404 -0.49322858833860594 -0.7776586433649669
C -3.6598280622198245 0.7477503508345816 -0.13776705512859067
N -4.866673310371658 1.441972067441922 0.009721887464277228
C -2.5158490618056306 1.1720655933350639 0.5429138228034948
C -1.3343474892608371 0.42324187280869263 0.4979237506250588
H 1.4551085487651938 0.5806383096341382 -2.851847905841279
H 3.344178052118932 0.9026859830689034 -1.7128881991279628
H 5.444944777031504 0.1029936789811511 1.115550151899517
H 5.37588119255525 0.8286922986912237 -0.40364813167463404
H 3.5469937440348187 -0.9834371661148086 2.1422916516814645
H 1.2927332684294988 -1.936074088002601 1.8037877352285898
H -2.4481394612838256 -2.200613601202357 -1.3457656807218608
H -4.532603061767736 -0.8871791317060803 -1.246313489125192
H -5.531571678348089 1.263901347095428 -0.7363223517003131
H -4.745953379113753 2.4336384525278945 0.18939375890732843
H -2.532197891252726 2.092983002667313 1.1192617824754614
H -0.4634848796609526 0.7891915807916177 1.0325067295871007


--Link1--
%nprocshared=4
%mem=8GB
%Oldchk=JTUXBPXZECVPKS-UHFFFAOYSA-N_conf_0_0.chk
%Chk=JTUXBPXZECVPKS-UHFFFAOYSA-N_conf_0_1.chk
# freq B3LYP/6-31G** SCRF=(Solvent=water) volume NMR pop=NPA density=current Geom=AllCheck Guess=Read


--Link1--
%nprocshared=4
%mem=8GB
%Oldchk=JTUXBPXZECVPKS-UHFFFAOYSA-N_conf_0_1.chk
%Chk=JTUXBPXZECVPKS-UHFFFAOYSA-N_conf_0_2.chk
# TD(NStates=10, Root=1) B3LYP/6-31G** SCRF=(Solvent=water) volume pop=NPA density=current Geom=AllCheck Guess=Read



