%nprocshared=4
%mem=8GB
%Chk=JTUXBPXZECVPKS-UHFFFAOYSA-N_conf_2_0.chk
# opt=CalcFc B3LYP/6-31G** SCRF=(Solvent=water) scf=xqc 

JTUXBPXZECVPKS-UHFFFAOYSA-N_conf_2

0 1
O -2.1731674051213408 2.2903394727079713 1.1550283066268499
C -2.2347154809677607 0.9881901318795941 0.7419253721507134
C -3.2295700325967513 0.17501796404674635 1.2763092205235942
C -3.352499930219903 -1.1520887573085585 0.8544235259253227
N -4.271623259768725 -2.0074028304835774 1.474738703241969
C -2.4047710851982513 -1.6690168836754178 -0.037519215001266516
C -1.4039002712533593 -0.8528458089940973 -0.5745426892237153
C -1.314343836097652 0.4793394323380825 -0.1733477035107133
O -0.3740163946526867 1.342608616297289 -0.6874423487645865
C 0.9418467952852357 0.9436976919405261 -0.6264266882971223
C 1.51530317458728 0.3868965552665939 0.5172011707506144
C 2.871021722384768 0.0454122714060338 0.5172013984079123
C 3.655355827198931 0.2291489535242606 -0.6251238682813763
N 5.034183144544451 -0.003603579121602323 -0.5773237129455714
C 3.0866833066248103 0.8608033562919678 -1.7346456064096605
C 1.7322548212726823 1.2053299470647694 -1.7433959207327334
H -1.4225858042808186 2.6940139326740575 0.6806733702004795
H -3.908054754604908 0.5858296826254805 2.017652643859335
H -5.084860086316503 -1.5288831558563578 1.8506772750702736
H -4.5239990759158815 -2.816721720822428 0.9166314151753385
H -2.4420213682428398 -2.7162032819867927 -0.3265720204807619
H -0.6999117285196553 -1.2653322691921027 -1.2912144555423728
H 0.927762351059334 0.23229374695618332 1.418052108984262
H 3.3110246686462466 -0.362461589883418 1.4234538102145575
H 5.459589068470169 -0.14717690172551842 -1.4877087788148946
H 5.3079499990584615 -0.7156663204022421 0.09254759873553339
H 3.6961599994410412 1.0938595298426197 -2.603621710951651
H 1.30090563518388 1.6846218145900111 -2.6176369537738378


--Link1--
%nprocshared=4
%mem=8GB
%Oldchk=JTUXBPXZECVPKS-UHFFFAOYSA-N_conf_2_0.chk
%Chk=JTUXBPXZECVPKS-UHFFFAOYSA-N_conf_2_1.chk
# freq B3LYP/6-31G** SCRF=(Solvent=water) volume NMR pop=NPA density=current Geom=AllCheck Guess=Read


--Link1--
%nprocshared=4
%mem=8GB
%Oldchk=JTUXBPXZECVPKS-UHFFFAOYSA-N_conf_2_1.chk
%Chk=JTUXBPXZECVPKS-UHFFFAOYSA-N_conf_2_2.chk
# TD(NStates=10, Root=1) B3LYP/6-31G** SCRF=(Solvent=water) volume pop=NPA density=current Geom=AllCheck Guess=Read



