%nprocshared=4
%mem=8GB
%Chk=JTUXBPXZECVPKS-UHFFFAOYSA-N_conf_1_0.chk
# opt=CalcFc B3LYP/6-31G** SCRF=(Solvent=water) scf=xqc 

JTUXBPXZECVPKS-UHFFFAOYSA-N_conf_1

0 1
O 1.9755738919619446 -2.5896793217114813 -0.7110321976653088
C 2.157245636321374 -1.2842265527159245 -0.3465839651506811
C 3.291464446962143 -0.6239620060847636 -0.8093464249308895
C 3.5359983890184568 0.6994107180146213 -0.4309298332864115
N 4.60887012517003 1.405955157642732 -0.9884990809240576
C 2.5779868714362895 1.3711202475660509 0.3384780278606584
C 1.4372016447745692 0.7087346964319012 0.8033710602960056
C 1.2230191105956318 -0.6225535958233874 0.44912201598703905
O 0.13842741130286912 -1.3400257686434167 0.8992762976182592
C -1.106216088598928 -0.791485085729902 0.6887678122644578
C -1.494131017971027 -0.23114127607387475 -0.5287298682038457
C -2.791080210590533 0.2683837206607834 -0.680330307288525
C -3.698142091173298 0.23905328174544463 0.3827891456285105
N -5.026733070404062 0.6310085780377475 0.1857052688330233
C -3.320906850255222 -0.39672968554663357 1.5689122021354798
C -2.0264466667096177 -0.8986576336998208 1.7292029344221753
H 1.138885252850646 -2.876041140693138 -0.2995864027890489
H 3.9821596730777187 -1.1506149779338886 -1.4607098587621117
H 5.389220780223236 0.8152853306012094 -1.2602128784790265
H 4.904326579934808 2.2076756161847366 -0.44066316241088355
H 2.7161377098674855 2.420158765385812 0.5874179919147829
H 0.7238924013524138 1.2387869228753288 1.4275480194829535
H -0.8082280377171323 -0.19471011832985577 -1.3706615591892612
H -3.0883422739236623 0.6776388929872695 -1.6423087796445128
H -5.144997384345484 1.3345085641595786 -0.5366595815935014
H -5.516636083194789 0.8714942814502451 1.041595024340838
H -4.03508898599431 -0.5100172922843205 2.380087874545754
H -1.7434611639710602 -1.379370318472806 2.6613592721114427


--Link1--
%nprocshared=4
%mem=8GB
%Oldchk=JTUXBPXZECVPKS-UHFFFAOYSA-N_conf_1_0.chk
%Chk=JTUXBPXZECVPKS-UHFFFAOYSA-N_conf_1_1.chk
# freq B3LYP/6-31G** SCRF=(Solvent=water) volume NMR pop=NPA density=current Geom=AllCheck Guess=Read


--Link1--
%nprocshared=4
%mem=8GB
%Oldchk=JTUXBPXZECVPKS-UHFFFAOYSA-N_conf_1_1.chk
%Chk=JTUXBPXZECVPKS-UHFFFAOYSA-N_conf_1_2.chk
# TD(NStates=10, Root=1) B3LYP/6-31G** SCRF=(Solvent=water) volume pop=NPA density=current Geom=AllCheck Guess=Read



