%nprocshared=9
%mem=18GB
%Chk=LIBPKBFUVQJULU-KPHUVODXSA-N_conf_3_0.chk
# opt=CalcFc B3LYP/6-31G** SCRF=(Solvent=water) scf=xqc 

LIBPKBFUVQJULU-KPHUVODXSA-N_conf_3

0 1
O -0.659393689274173 -2.5491817794515956 -1.0900448529204219
C -1.779506954746987 -1.658417179322066 -1.2019946680635136
C -1.585502697859232 -0.33162715047480773 -0.4018879783365225
N -0.8407943090965263 -0.6355505932828754 0.8474026215574905
C -0.5467394148374892 0.5577822184265625 1.5774785344761206
C -1.4347924869902704 1.0423318426466017 2.54435548300472
C -1.1758132385738274 2.2459963519091555 3.205020706811087
C -0.032189639084656926 2.9787205043337353 2.9000930733326697
C 0.8574814590463428 2.509611220578177 1.9347037360453325
C 0.6116634739513929 1.3036256998304743 1.269568735057388
N 1.5442753950316994 0.7907851427445699 0.32904609071605634
C 2.810250272200761 0.39700566846141805 0.9552617269787012
C 3.057854080710489 -1.132589236191654 0.7955273027914052
C 4.079639738525303 -1.4296986655360815 -0.3083642124656249
C 3.919304486124593 -0.44956868506900244 -1.4695932263331497
C 4.161090963786115 0.9867654282878683 -0.9724708849523601
C 3.4272144242542484 2.0193695945120442 -1.842540590148572
O 3.6574610449172424 3.3339948434428477 -1.328026626425685
O 3.8670360734722067 1.1867787320941945 0.4247197557847352
O 4.85952264859692 -0.7757740378033506 -2.5059658681329298
O 3.923949276553199 -2.7709614991200473 -0.7953105512434728
O 1.8252030828059413 -1.8439903336056622 0.5093155730664491
O -2.8159180427063353 0.28621994113812993 -0.03678387038806959
C -3.8907298709965685 0.034805690087541995 -0.9411165440690583
C -5.06327741186953 0.9082335672577854 -0.48152965027259825
O -4.690044464505206 2.2817704975569137 -0.5328982600008445
C -4.28332184716365 -1.4570879376367385 -0.9459959442293358
O -4.894397799577411 -1.779699301151635 -2.201587125899204
C -3.0580446465082076 -2.369124565319359 -0.7446587609408402
O -2.936694555253829 -2.718484316510271 0.651941845810196
H -0.06704293870728281 -2.181851622591533 -0.40173183857785166
H -1.8824248463253201 -1.416138597796278 -2.2673769657086402
H -1.0039527650769469 0.3659583540015536 -1.020225518397567
H -1.5154204225071126 -1.1796320364716937 1.400691928201699
H -2.345088011946162 0.4991738770896189 2.774785114133609
H -1.8728962286450492 2.6193146236104865 3.9501262308520286
H 0.16413515105392468 3.92023604057933 3.4074338416131935
H 1.7406026742758107 3.0931181275024104 1.6950666104403282
H 1.1046860990851959 -0.03265769877760201 -0.09004084805468128
H 2.7923166039554217 0.5880805809528492 2.0352695122628077
H 3.4362058945003198 -1.5511055085233343 1.7372920061240165
H 5.098199950479118 -1.3540271966733635 0.0854833412662538
H 2.924470793004601 -0.564556878802307 -1.9090254846662487
H 5.228372913914201 1.222769642077781 -1.0615332878689743
H 2.3454994086416407 1.8588564184650787 -1.8597094327065629
H 3.7921277757630625 1.9839274770806283 -2.8775247533972528
H 3.468554886284281 3.2602837983866517 -0.3741087598505393
H 4.803487184122049 -1.7517582980453406 -2.6089989984062285
H 2.9797608714112895 -2.999662435811171 -0.6549945449461734
H 1.1854807788226878 -1.5642181989707107 1.20490953687713
H -3.5877022481928487 0.37163953201476346 -1.9412830195822053
H -5.341247579542347 0.6798441169915701 0.5530303236710619
H -5.941896300837732 0.7713800868573011 -1.1171517949313259
H -3.8396603193519407 2.340924760212949 -0.053593546989848646
H -5.016798461775459 -1.6683651195142368 -0.1574048836331413
H -5.752948192752511 -1.3191999039009712 -2.2579597033100285
H -3.1828122360143114 -3.3131723724037103 -1.294794895935904
H -2.628795784568699 -3.641203230374656 0.6663964421661281


--Link1--
%nprocshared=9
%mem=18GB
%Oldchk=LIBPKBFUVQJULU-KPHUVODXSA-N_conf_3_0.chk
%Chk=LIBPKBFUVQJULU-KPHUVODXSA-N_conf_3_1.chk
# freq B3LYP/6-31G** SCRF=(Solvent=water) volume NMR pop=NPA density=current Geom=AllCheck Guess=Read


--Link1--
%nprocshared=9
%mem=18GB
%Oldchk=LIBPKBFUVQJULU-KPHUVODXSA-N_conf_3_1.chk
%Chk=LIBPKBFUVQJULU-KPHUVODXSA-N_conf_3_2.chk
# TD(NStates=10, Root=1) B3LYP/6-31G** SCRF=(Solvent=water) volume pop=NPA density=current Geom=AllCheck Guess=Read



