%nprocshared=9
%mem=18GB
%Chk=LIBPKBFUVQJULU-KPHUVODXSA-N_conf_4_0.chk
# opt=CalcFc B3LYP/6-31G** SCRF=(Solvent=water) scf=xqc 

LIBPKBFUVQJULU-KPHUVODXSA-N_conf_4

0 1
O -1.373642341928303 0.392615423522006 1.2642691804372583
C -2.5655725210343987 -0.24502510470999048 0.7371305461270182
C -2.765054175316458 -0.012099083760083562 -0.7941795158699833
N -1.5071352228068104 -0.0927417024814457 -1.5398782878636503
C -0.9297167991291155 -1.3859766303083283 -1.5703039047631164
C -1.6054685825273993 -2.4369038673468735 -2.206981628483667
C -1.108653670571295 -3.7362940625986414 -2.1537985944197215
C 0.06032915593135701 -3.9973822266570616 -1.4485394966858414
C 0.7522265108956818 -2.95669117140141 -0.8194161861239704
C 0.3034702362673867 -1.6326020267765522 -0.9082554331028401
N 0.9308753127759628 -0.545548331031031 -0.27042441628237435
C 2.274298167248054 -0.6511362177314495 0.28709873722799273
C 3.3387707577494847 -0.6639586472335947 -0.8409205962658671
C 4.733346704788354 -0.5923564048416611 -0.2227089025842426
C 4.85947621717599 0.5964542948249203 0.736503988757561
C 3.7119150601294724 0.5789687471920715 1.7559519533738996
C 3.7280293523310077 1.83117392795631 2.6482068118566615
O 3.6934025867351545 3.025989574284148 1.8685864469732656
O 2.4332639461000496 0.5020630582135293 1.1098071945959362
O 6.124796113902491 0.49485266775859726 1.4037563717896286
O 5.724502982137181 -0.45524700272164176 -1.2581043194259176
O 3.1485154781456517 0.44908458735404805 -1.7382537505629825
O -3.2649356293955467 1.3067250891220046 -0.9977985640687874
C -4.622998217173672 1.4671608551054496 -0.531625986749338
C -4.790211504324837 2.960032528209734 -0.2191892349124764
O -4.564306769651877 3.7202257685503497 -1.411112103868435
C -4.9806700994924755 0.575383563628796 0.6808117484043252
O -5.467715886045977 -0.6964085755746574 0.2176838012449337
C -3.753008247189287 0.31568412599179907 1.5529321506926124
O -3.3864309614891894 1.5242703488024174 2.236340231204357
H -0.6008692021822979 -0.02364337775743925 0.8164663118705088
H -2.4634203463514557 -1.3215608600403024 0.9215826303450172
H -3.488529120619042 -0.7193029505393803 -1.2146100280516365
H -0.875204306526135 0.591353838428119 -1.1342836508507483
H -2.5258095265599145 -2.240368138088146 -2.7508414251493916
H -1.6437725372116712 -4.544097448175316 -2.6450127266695063
H 0.43613993136445917 -5.015508509829855 -1.383447444015748
H 1.6474790328312647 -3.2193433258355184 -0.2677321307812015
H 0.969605016587726 0.2425160418972456 -0.9275150360319211
H 2.364469769637544 -1.5306827684827835 0.9350139359306291
H 3.2532015856245597 -1.5640918472323488 -1.4590393212981017
H 4.961832800518498 -1.5214569399234712 0.31452679990922294
H 4.864496382968269 1.5300913754263552 0.1616867390920335
H 3.813274784436824 -0.2904154506940386 2.4196389631509625
H 4.629020252945091 1.8565421307354757 3.268684189781057
H 2.847569767960766 1.8342741569114804 3.2993602734773373
H 3.5409214987202104 3.762412292346848 2.485921972205017
H 6.791084351272302 0.5162012200569719 0.6880586543126213
H 5.723232351716402 -1.2786241699226983 -1.7797879084944497
H 4.01363928826124 0.6247049821258396 -2.157541860037853
H -5.265948968714872 1.2114702314768155 -1.3839584887372476
H -5.800811422982112 3.183372907317461 0.13475316102581558
H -4.065313412946463 3.306818497170569 0.5235965474848484
H -3.708985975119295 3.3942758152274264 -1.7572570398876481
H -5.786328526025743 1.0310315291350765 1.268851849143485
H -6.358536169842849 -0.5498851368252468 -0.1513354093600711
H -4.001611811533134 -0.4152398426241534 2.332949219555881
H -2.40252344246751 1.508842242373064 2.2337999720476014


--Link1--
%nprocshared=9
%mem=18GB
%Oldchk=LIBPKBFUVQJULU-KPHUVODXSA-N_conf_4_0.chk
%Chk=LIBPKBFUVQJULU-KPHUVODXSA-N_conf_4_1.chk
# freq B3LYP/6-31G** SCRF=(Solvent=water) volume NMR pop=NPA density=current Geom=AllCheck Guess=Read


--Link1--
%nprocshared=9
%mem=18GB
%Oldchk=LIBPKBFUVQJULU-KPHUVODXSA-N_conf_4_1.chk
%Chk=LIBPKBFUVQJULU-KPHUVODXSA-N_conf_4_2.chk
# TD(NStates=10, Root=1) B3LYP/6-31G** SCRF=(Solvent=water) volume pop=NPA density=current Geom=AllCheck Guess=Read



