%nprocshared=9
%mem=18GB
%Chk=LIBPKBFUVQJULU-KPHUVODXSA-N_conf_0_0.chk
# opt=CalcFc B3LYP/6-31G** SCRF=(Solvent=water) scf=xqc 

LIBPKBFUVQJULU-KPHUVODXSA-N_conf_0

0 1
O 0.5663629414800498 -1.807920756775979 1.927845606884622
C 1.9474727768960782 -1.4169370558514132 1.8819279466367538
C 2.0793203785026253 0.0758663712530182 1.4780608019658963
N 1.241855440589306 0.36823027171908485 0.30724920270810147
C 0.830428908710793 1.7032469978731382 0.07883150853049671
C 1.6738976182534873 2.801289722963995 0.3200328499914321
C 1.2902473989946357 4.1069263114779035 -0.011572779068347583
C 0.06892558697614706 4.339384481467181 -0.6362186631249853
C -0.7767370699434828 3.26785498195683 -0.9164679155600226
C -0.41616731364590015 1.95634167959233 -0.5645559094581787
N -1.3651973792695467 0.9213997398669512 -0.8277607455369987
C -1.986546864302115 0.36126344478712896 0.38173870498890794
C -3.4161069701313695 0.9066501218802108 0.696542432767022
C -4.556936917756872 0.10709329029228434 0.05467316833386378
C -4.299451251042012 -1.3882832358458954 0.2080147342474057
C -2.923871613643889 -1.7593264645659685 -0.3785478082183151
C -2.8209491285231656 -1.6563820690909907 -1.9082428440299408
O -3.917162549010611 -2.3026649653486633 -2.5500459503941224
O -1.8647422138227856 -1.0585720553897204 0.2945226488663133
O -4.341410170966485 -1.7004343647129982 1.6092382480482033
O -4.7371897560860825 0.45932473994035594 -1.3273830848190868
O -3.6062392882999896 2.297634291034382 0.38763386841087744
O 3.4447211489700424 0.4225738483740157 1.2488831626874108
C 4.129101506162498 -0.3676045570771329 0.2659242122142654
C 4.536389874900321 0.5163631005783113 -0.9236173362616017
O 5.432336476111634 -0.2001552461086882 -1.7789614813550578
C 3.382491043671157 -1.6222919094614618 -0.22216955485884285
O 4.263749164837462 -2.534949114712993 -0.9014185479021333
C 2.7600111590257987 -2.3516847011388644 0.9697703861696331
O 1.9120431341821433 -3.416271801110079 0.48681373196251476
H 0.5116265507109667 -2.588400974351074 1.335700763197551
H 2.339532935628712 -1.5290641937733296 2.898838215572261
H 1.715848579843236 0.674096901150443 2.322221099511471
H 0.4200580905574795 -0.24167330929422176 0.3616027891284786
H 2.655090686423173 2.6676572315007907 0.769739147633606
H 1.9593478585947521 4.939600187664058 0.20430376764597746
H -0.2216891171137563 5.348261596192532 -0.9136382494953963
H -1.7245798341054421 3.4506718545526804 -1.4261748106954442
H -0.8054342189700954 0.16436878823305295 -1.2259886822898165
H -1.3802706212152303 0.6349192258757738 1.2559122082129985
H -3.5419706469997108 0.8163429609663294 1.7828834558343047
H -5.4938931950099485 0.3844562205024287 0.5592737486516247
H -5.089076090379628 -1.9672992781998453 -0.2808589377924609
H -2.75886412343857 -2.8182442775286805 -0.1333280477027088
H -1.896620384753834 -2.145948500972391 -2.237599422541738
H -2.7574084657453333 -0.6309176311243604 -2.275455185319733
H -4.612826472272085 -1.6176922060859724 -2.6392125862915887
H -3.870046940499385 -2.554957142513703 1.739216579208288
H -4.613197655298927 1.4345325604041796 -1.3522680539958207
H -2.764490261834622 2.7405239357222375 0.6159304320967469
H 5.062535170702993 -0.7001921419759336 0.7423021278896382
H 3.6646275334996026 0.8238058366996356 -1.5125661835182562
H 5.029092736412571 1.4307097887246254 -0.5705744305450003
H 6.239472643350778 0.3455939952846242 -1.854040866729627
H 2.5986454034914765 -1.3726907057491775 -0.9483635152806102
H 4.785978088352861 -1.9807556441792036 -1.5213110371812935
H 3.5519933687575236 -2.8363080548296287 1.555052057440381
H 2.4658723094923696 -3.899362120762137 -0.16103692009101422


--Link1--
%nprocshared=9
%mem=18GB
%Oldchk=LIBPKBFUVQJULU-KPHUVODXSA-N_conf_0_0.chk
%Chk=LIBPKBFUVQJULU-KPHUVODXSA-N_conf_0_1.chk
# freq B3LYP/6-31G** SCRF=(Solvent=water) volume NMR pop=NPA density=current Geom=AllCheck Guess=Read


--Link1--
%nprocshared=9
%mem=18GB
%Oldchk=LIBPKBFUVQJULU-KPHUVODXSA-N_conf_0_1.chk
%Chk=LIBPKBFUVQJULU-KPHUVODXSA-N_conf_0_2.chk
# TD(NStates=10, Root=1) B3LYP/6-31G** SCRF=(Solvent=water) volume pop=NPA density=current Geom=AllCheck Guess=Read



