%nprocshared=7
%mem=14GB
%Chk=KIFDSGGWDIVQGN-UHFFFAOYSA-N_conf_1_0.chk
# opt=CalcFc B3LYP/6-31G** SCRF=(Solvent=water) scf=xqc 

KIFDSGGWDIVQGN-UHFFFAOYSA-N_conf_1

0 1
N 0.39870132286029186 5.684012987775865 0.3563949893706303
C 0.3176267294619177 4.2871287347657505 0.35406024267861536
C 1.2180336686691406 3.530073891475203 -0.39224900763672427
C 1.0750094450982188 2.1411406359963054 -0.4943469935062487
C -0.791232218614056 3.6440372810877744 0.900940820079528
C -0.9395684794995995 2.254330164048989 0.8037481538801191
C 0.009438903985910364 1.4638117517509106 0.13119225034638665
C -0.1544877264521478 -0.07719476342557713 -0.021395867064534918
C 1.1872594425725422 -0.8655405842973252 0.034264684259343
C 1.409998285124828 -2.0191169932710054 -0.7387254222715702
C 2.611463036468452 -2.734099637470424 -0.6491910474696762
C 3.637610595196203 -2.309959127792421 0.19303453326702716
N 4.785282861741065 -3.0926412262210943 0.36072021354184297
C 3.3971689289653435 -1.222981831527114 1.0305906039906991
C 2.1983129764376548 -0.5048039895859435 0.9470350922932371
C -1.1174229362550683 -0.7014699291648681 1.031135619818191
C -2.270859297219319 -1.2223875554914798 0.4049139915983092
C -3.2684916234709465 -1.8273684872953346 1.1547449031765837
C -3.1081052521486288 -1.9122043156492388 2.5407675123203175
C -1.9617238401311747 -1.3964843064565942 3.1634978462869827
C -0.956269474742373 -0.7865245349693409 2.4114409900167155
C -2.1828397147878302 -1.0039929311502165 -1.020927667677992
C -0.9715705692229801 -0.34274582211926047 -1.320103393677009
C -0.6449140467708714 -0.013804793597008647 -2.6329398932147625
C -1.540686394798425 -0.3543026176167331 -3.647941265802583
C -2.743027748707582 -1.0127754435395517 -3.350049814870182
C -3.0706688951224788 -1.3415927684871838 -2.0315236600931375
H 1.3412635221556768 6.0391241248989616 0.23266387603808242
H -0.07860034953457044 6.118911514784899 1.1394902589488827
H 2.042419567362796 4.013464057396726 -0.9094396340479919
H 1.8067813251123255 1.5927803960800424 -1.0849006381105901
H -1.56268039271497 4.218835975597303 1.4065835682763788
H -1.8288597100196922 1.8090065649695881 1.2447651969225373
H 0.6430466087168696 -2.4017057770242713 -1.4088436950986802
H 2.7301482199160305 -3.63520659080006 -1.2451096203190852
H 5.581020689519799 -2.5788651762787373 0.7249616340303525
H 5.023694377037476 -3.6469866884785973 -0.45539551558758506
H 4.140122922179325 -0.9228901678789072 1.764573371730229
H 2.0591032462435304 0.3397813671471808 1.6195183966189202
H -4.158971107321833 -2.231523298233452 0.6851767223175577
H -3.87920378116644 -2.385638551206544 3.1439898523829757
H -1.8545678296584882 -1.475579063417216 4.242835546808324
H -0.07298555052563983 -0.3894707211894984 2.9005598186277375
H 0.28327623578705263 0.494741206663878 -2.8715245125173467
H -1.3060298132247552 -0.1043217577665241 -4.680003833957582
H -3.4286880709207344 -1.2676143661462134 -4.15474767641755
H -4.004328087582233 -1.8493868368913742 -1.8142415302857904


--Link1--
%nprocshared=7
%mem=14GB
%Oldchk=KIFDSGGWDIVQGN-UHFFFAOYSA-N_conf_1_0.chk
%Chk=KIFDSGGWDIVQGN-UHFFFAOYSA-N_conf_1_1.chk
# freq B3LYP/6-31G** SCRF=(Solvent=water) volume NMR pop=NPA density=current Geom=AllCheck Guess=Read


--Link1--
%nprocshared=7
%mem=14GB
%Oldchk=KIFDSGGWDIVQGN-UHFFFAOYSA-N_conf_1_1.chk
%Chk=KIFDSGGWDIVQGN-UHFFFAOYSA-N_conf_1_2.chk
# TD(NStates=10, Root=1) B3LYP/6-31G** SCRF=(Solvent=water) volume pop=NPA density=current Geom=AllCheck Guess=Read



