%nprocshared=7
%mem=14GB
%Chk=KIFDSGGWDIVQGN-UHFFFAOYSA-N_conf_4_0.chk
# opt=CalcFc B3LYP/6-31G** SCRF=(Solvent=water) scf=xqc 

KIFDSGGWDIVQGN-UHFFFAOYSA-N_conf_4

0 1
N -4.2055916087956895 -3.7833162339155164 0.7518385640390964
C -3.238538064727988 -2.7786252531157847 0.634909004157527
C -3.408626583980402 -1.7383323912362905 -0.2767194081168363
C -2.397007662718766 -0.7926070124091648 -0.4885944569016685
C -2.0024332359094483 -2.912797154169057 1.2630939750623587
C -0.9876456248889242 -1.9709667191466744 1.0561492227615767
C -1.1545036565530917 -0.8940776136929689 0.16227798453868222
C -0.026366922919711155 0.16283710780153005 -0.028849866911790794
C 1.4075248636684443 -0.44185503437049684 -0.07195394254481871
C 2.519925550191948 0.23182957955146288 0.46338871597224485
C 3.8079153291669123 -0.31361550991055664 0.38422503568153443
C 4.025467581220716 -1.5564884440288764 -0.2076159701520201
N 5.327071645833465 -2.0388730906971926 -0.38382904969131365
C 2.9489220010280897 -2.1924745653406763 -0.8219906419102272
C 1.6594724783943593 -1.652414766319896 -0.7475690896402893
C -0.20486927803196453 1.248185254284154 1.0741895451752725
C -0.4554844733639301 2.5114010675509624 0.4951916006301746
C -0.647598492312337 3.628440047891213 1.294516971164647
C -0.588889532307288 3.4781938449560887 2.6830199563499857
C -0.34011873290737266 2.2235997608572657 3.2591989373173234
C -0.14616629681982585 1.0976482441026918 2.4571626814264373
C -0.45806283279790516 2.3873572884281216 -0.9445310085572027
C -0.21091828505227717 1.0433541741598564 -1.299704832650158
C -0.15457530601602354 0.6587515066839551 -2.636773922480088
C -0.3529457537222337 1.630616829940768 -3.618919145761236
C -0.6018638449828776 2.9650302427915523 -3.265046148193671
C -0.6552627148393341 3.350825079636619 -1.9225327177467408
H -4.158851033693826 -4.293839558770539 1.6277709714697368
H -5.146850920915894 -3.467744983033626 0.5399075977375686
H -4.339359070656978 -1.6422666446642669 -0.8295905782249059
H -2.6068952890256867 0.0241820864344902 -1.175571577357943
H -1.8149449308614294 -3.750578771013016 1.9291648586398762
H -0.05217448041659881 -2.098916994704355 1.597853293087281
H 2.412191764226417 1.208315695873102 0.9308054945079559
H 4.6426396403904695 0.2537723433692972 0.7872957342189773
H 5.3750487773887405 -3.042655152532507 -0.5255463191247743
H 5.980860125321887 -1.716279505769878 0.32225127135583564
H 3.100633562271281 -3.1172433455747504 -1.3721369994365094
H 0.8500764030235143 -2.1891595963828516 -1.2396752883162463
H -0.8402859842067573 4.6041430906139285 0.86126098936025
H -0.7385638679265705 4.343231481122862 3.324840341504881
H -0.2995958578519121 2.1277670449613013 4.341717150960562
H 0.04830295422716425 0.13125092023195653 2.9102448723408934
H 0.036806519709175756 -0.371505804425216 -2.9184746659286867
H -0.311302169267526 1.351468581332338 -4.669206904756101
H -0.7514008207019426 3.707770514193981 -4.045162057984708
H -0.845165866890564 4.386662358453656 -1.6622801770723319


--Link1--
%nprocshared=7
%mem=14GB
%Oldchk=KIFDSGGWDIVQGN-UHFFFAOYSA-N_conf_4_0.chk
%Chk=KIFDSGGWDIVQGN-UHFFFAOYSA-N_conf_4_1.chk
# freq B3LYP/6-31G** SCRF=(Solvent=water) volume NMR pop=NPA density=current Geom=AllCheck Guess=Read


--Link1--
%nprocshared=7
%mem=14GB
%Oldchk=KIFDSGGWDIVQGN-UHFFFAOYSA-N_conf_4_1.chk
%Chk=KIFDSGGWDIVQGN-UHFFFAOYSA-N_conf_4_2.chk
# TD(NStates=10, Root=1) B3LYP/6-31G** SCRF=(Solvent=water) volume pop=NPA density=current Geom=AllCheck Guess=Read



