%nprocshared=7
%mem=14GB
%Chk=KIFDSGGWDIVQGN-UHFFFAOYSA-N_conf_3_0.chk
# opt=CalcFc B3LYP/6-31G** SCRF=(Solvent=water) scf=xqc 

KIFDSGGWDIVQGN-UHFFFAOYSA-N_conf_3

0 1
N -3.2303179903031984 -4.095846601863114 -2.3200525945487622
C -2.439522813276227 -3.137006240984421 -1.677295730925002
C -3.0031293311469476 -2.267727400811285 -0.7451367249422524
C -2.2505649976378916 -1.2302522377391805 -0.17942009044783844
C -1.1439280182242901 -2.880006181128537 -2.1202605538932993
C -0.38682147175359616 -1.8442120074342967 -1.559963664625299
C -0.9110724158333717 -1.0139589240084939 -0.5493416740808355
C -0.06768101697185985 0.15567672143169353 0.038455027654741215
C 1.4352027547658022 -0.19182942053810265 0.2516391889651647
C 2.456610693070361 0.7561999169423729 0.0623672937144515
C 3.800410962946809 0.43355080505452703 0.29221637349907
C 4.171937100707071 -0.848409291817654 0.6931785959438357
N 5.500958281843384 -1.127719944555675 1.0301651719472908
C 3.16538763541946 -1.7703253617580326 0.9720177401974792
C 1.8205141135828993 -1.4539877301651758 0.7456132595023583
C -0.2890726133079897 1.4036986339834796 -0.8660953376864465
C -0.8736537902004123 2.456683684317906 -0.12892747361882714
C -1.1598565065371378 3.669785473902017 -0.7371950542412868
C -0.8597369750454028 3.827756441659892 -2.0932761793389596
C -0.2805644775040033 2.781577217917871 -2.826771241489517
C 0.00913815573138745 1.5597187892605577 -2.217087176962372
C -1.0770786394763625 2.0309789471969912 1.2370378722476638
C -0.6259318445297039 0.7012241076182397 1.3858667231649424
C -0.7104917363925726 0.05366502560185113 2.6154871335325725
C -1.2535093540891176 0.7475313339654959 3.698196104654407
C -1.703057809850354 2.0679923063775387 3.5490670533709547
C -1.616700990607292 2.7177136199121024 2.314405467421692
H -2.698669281421555 -4.859247707787938 -2.7255127177045764
H -4.0106971039171135 -4.423064993653167 -1.7595846437337677
H -4.042857531822682 -2.3815744791679494 -0.4498321329429411
H -2.7460233538857115 -0.5798938959936757 0.5383510243421851
H -0.7072613309124399 -3.4814390400151574 -2.912956367525147
H 0.6222653605424662 -1.685772469313154 -1.9362500805199632
H 2.2266339826920873 1.7746763534595031 -0.2433494136221126
H 4.554246776235635 1.2050866018633248 0.15928128966267438
H 6.1767178517840415 -0.5598306132827431 0.5291247397567304
H 5.730678044246432 -2.115816464458778 1.0031095386664537
H 3.4152137795841244 -2.74812478895184 1.3748198258544373
H 1.07095094350726 -2.209426230643747 0.9745343110922516
H -1.6091095873371264 4.486015878484601 -0.18156662366838913
H -1.0797853244241322 4.771374037181716 -2.587014361070844
H -0.057899693845000294 2.9236068441361436 -3.8817386655199844
H 0.4577555170444095 0.7557084265480025 -2.7910091679055835
H -0.36569531542939565 -0.967614761048994 2.7387131430853406
H -1.3264620008575707 0.2610814595535026 4.668120877507447
H -2.1210540296612326 2.592245932741136 4.405246735495411
H -1.966414607501492 3.7395382280105647 2.2126231797347584


--Link1--
%nprocshared=7
%mem=14GB
%Oldchk=KIFDSGGWDIVQGN-UHFFFAOYSA-N_conf_3_0.chk
%Chk=KIFDSGGWDIVQGN-UHFFFAOYSA-N_conf_3_1.chk
# freq B3LYP/6-31G** SCRF=(Solvent=water) volume NMR pop=NPA density=current Geom=AllCheck Guess=Read


--Link1--
%nprocshared=7
%mem=14GB
%Oldchk=KIFDSGGWDIVQGN-UHFFFAOYSA-N_conf_3_1.chk
%Chk=KIFDSGGWDIVQGN-UHFFFAOYSA-N_conf_3_2.chk
# TD(NStates=10, Root=1) B3LYP/6-31G** SCRF=(Solvent=water) volume pop=NPA density=current Geom=AllCheck Guess=Read



