%nprocshared=5
%mem=10GB
%Chk=RNLHGQLZWXBQNY-SCZZXKLOSA-N_conf_0_0.chk
# opt=CalcFc B3LYP/6-31G** SCRF=(Solvent=water) scf=xqc 

RNLHGQLZWXBQNY-SCZZXKLOSA-N_conf_0

0 1
N -0.7339893448069281 2.5050871927093605 0.5034583956869572
C -0.44457260853584607 1.7214372938615443 -0.6929959194407693
C 0.9720916477004217 1.1302885932205258 -0.6716475227324078
C 1.1846106036717947 -0.09552574993905821 0.25316842123323346
C 2.5687972312205924 -0.7650879045230095 -0.05286812085325593
N 2.736100425405951 -1.2774044928177102 -1.4120918475658846
C 0.05056414651544406 -1.1382439644939621 0.044674577351069424
C -1.4084012746155703 -0.6160944035684829 -0.03527630599392526
C -2.2738276222515146 -1.7313907142876983 -0.6767383841346284
C -1.4958490422371433 0.6320569595197775 -0.9428652728649162
C -2.019397982767373 -0.36008717727065864 1.3541560908186556
C 1.2827332339892037 0.3378841271978848 1.7331657331039196
H -0.07407425231114252 3.277596170119029 0.5785673978452622
H -1.6608221437875286 2.92171135641671 0.426561174226882
H -0.4949003420184826 2.423593582514928 -1.5354953080423794
H 1.7022176766190813 1.9138510198133272 -0.4277432368790234
H 1.1912273762822445 0.8427993050304994 -1.7076943138070237
H 2.719865445674458 -1.6053149530807544 0.6364598986750379
H 3.3780648056304288 -0.04994737939602235 0.1408677810313325
H 3.632322869699967 -1.7590939260861802 -1.4778299334307043
H 2.791182484632846 -0.5018081076703839 -2.0694906762739245
H 0.12155931656257403 -1.917530271260688 0.8158591828605213
H 0.24890994849956005 -1.6569316203588602 -0.9031430488805946
H -3.320479515318113 -1.4187081543881213 -0.767562879695184
H -1.9194282358901373 -1.986183499271273 -1.6821270274042681
H -2.24776015544061 -2.646963237188289 -0.07468011973043044
H -1.373698551794875 0.3100323154513994 -1.9873557265634163
H -2.5040468531613667 1.0652774315701263 -0.891033475759665
H -1.9251905056775327 -1.2458420760679878 1.9928946597187975
H -1.566510316280917 0.4735939894858013 1.88612543486757
H -3.088469403054259 -0.1294453581423676 1.2724112027517236
H 2.143864528433752 0.998933985403159 1.8887825893428551
H 1.4156579445061672 -0.5314210273995832 2.387768524682386
H 0.4116484649050102 0.8788806948970197 2.093718055856193


--Link1--
%nprocshared=5
%mem=10GB
%Oldchk=RNLHGQLZWXBQNY-SCZZXKLOSA-N_conf_0_0.chk
%Chk=RNLHGQLZWXBQNY-SCZZXKLOSA-N_conf_0_1.chk
# freq B3LYP/6-31G** SCRF=(Solvent=water) volume NMR pop=NPA density=current Geom=AllCheck Guess=Read


--Link1--
%nprocshared=5
%mem=10GB
%Oldchk=RNLHGQLZWXBQNY-SCZZXKLOSA-N_conf_0_1.chk
%Chk=RNLHGQLZWXBQNY-SCZZXKLOSA-N_conf_0_2.chk
# TD(NStates=10, Root=1) B3LYP/6-31G** SCRF=(Solvent=water) volume pop=NPA density=current Geom=AllCheck Guess=Read



