%nprocshared=4
%mem=8GB
%Chk=IBOFVQJTBBUKMU-UHFFFAOYSA-N_conf_0_0.chk
# opt=CalcFc B3LYP/6-31G** SCRF=(Solvent=water) scf=xqc 

IBOFVQJTBBUKMU-UHFFFAOYSA-N_conf_0

0 1
N 4.642660525487969 1.6928408174830891 0.38571149622361817
C 3.5593962938710106 0.7958952712155932 0.4159957957674265
C 2.4976581101253856 1.0410420506851517 1.2920225167193304
C 1.3488738886463802 0.24263262659090337 1.270908284919578
C 1.2189498681573685 -0.7995502479800296 0.3434397856181398
C -0.025210715616029705 -1.6573359192043544 0.31589074733338257
C -1.2569094276391997 -0.9333018131276086 -0.17733499575321615
C -2.2986319975406024 -0.614290717652755 0.7031166386602347
C -3.436706953274114 0.060295388304422645 0.24747149989009515
C -3.579369346282389 0.39982658991018083 -1.1014757096350818
N -4.679384743458967 1.1829069033829105 -1.4968563925978466
C -2.509188438386067 0.12472041099002805 -1.9703318999211166
Cl -2.5882301970738735 0.5824088349749104 -3.6374533088227334
C -1.3703357992195135 -0.5508759468989329 -1.5210550946860084
C 2.256294391671441 -1.0176243411482606 -0.5726256246751262
C 3.4024232405566734 -0.21626774792595477 -0.5466257738571151
Cl 4.645357550796862 -0.5256657653823767 -1.710702836288581
H 5.456518436938192 1.3067575860008476 -0.0886546986783335
H 4.866291760717039 2.1089278079072797 1.283275044524545
H 2.5522177183166463 1.865663983433615 1.998405853631547
H 0.5456727193330616 0.45566527329203066 1.9736360965763322
H -0.1945035916551472 -2.0554361220570283 1.3251502305418716
H 0.13384876738367474 -2.541513920843212 -0.31551380040728594
H -2.228656712225511 -0.8745688892090696 1.7573398653607382
H -4.21331766429206 0.3247507245848422 0.9608603479403878
H -4.8235865013077275 1.170165350479353 -2.504817097870182
H -5.529227375880538 1.004595233486759 -0.9727833407219889
H -0.5644356322893226 -0.7667378632785945 -2.218621912570527
H 2.1715318241389028 -1.8059255580139948 -1.3167681387800514


--Link1--
%nprocshared=4
%mem=8GB
%Oldchk=IBOFVQJTBBUKMU-UHFFFAOYSA-N_conf_0_0.chk
%Chk=IBOFVQJTBBUKMU-UHFFFAOYSA-N_conf_0_1.chk
# freq B3LYP/6-31G** SCRF=(Solvent=water) volume NMR pop=NPA density=current Geom=AllCheck Guess=Read


--Link1--
%nprocshared=4
%mem=8GB
%Oldchk=IBOFVQJTBBUKMU-UHFFFAOYSA-N_conf_0_1.chk
%Chk=IBOFVQJTBBUKMU-UHFFFAOYSA-N_conf_0_2.chk
# TD(NStates=10, Root=1) B3LYP/6-31G** SCRF=(Solvent=water) volume pop=NPA density=current Geom=AllCheck Guess=Read



