%nprocshared=4
%mem=8GB
%Chk=IBOFVQJTBBUKMU-UHFFFAOYSA-N_conf_4_0.chk
# opt=CalcFc B3LYP/6-31G** SCRF=(Solvent=water) scf=xqc 

IBOFVQJTBBUKMU-UHFFFAOYSA-N_conf_4

0 1
N -4.703239305194882 1.1208559845968205 -1.3936967815575163
C -3.540704572607841 0.5839423823182116 -0.8098111504680258
C -2.6709321834101107 -0.17364966434817386 -1.5999517166864716
C -1.568463761452712 -0.823652817651563 -1.0348971288467088
C -1.33133969196475 -0.7619181716999175 0.3446810692587889
C -0.1370632610413125 -1.4598170397775687 0.9536029955520414
C 1.1842566614200696 -0.807485080379052 0.6172045375748341
C 2.07868620480054 -1.420084516087742 -0.26972537766707494
C 3.2978138314031105 -0.811273455642724 -0.587447020825311
C 3.6693820882521004 0.40295007557073254 -0.0017567449867388332
N 4.844445189988516 1.0416940431259336 -0.43881796314831367
C 2.7461550710391864 1.039119665010656 0.8460777689142324
Cl 3.10944254223083 2.5792947498344825 1.5467086653450104
C 1.5274058523919154 0.4345016764525883 1.168882934578713
C -2.2273012813862727 -0.04670569604939139 1.1499370254045034
C -3.3282017543324245 0.6005559371019575 0.5795412764550197
Cl -4.408303809725332 1.4571369931087426 1.6260275655520784
H -4.587752317306737 1.4035017805290733 -2.3612701225392936
H -5.125830245814738 1.8468666008717378 -0.8181201355532622
H -2.8451111068951596 -0.2658025257250409 -2.669092970586008
H -0.8989467423805282 -1.3861854620769318 -1.6826022523435475
H -0.14048344756564293 -2.5079795717092503 0.6264221524623067
H -0.235281632806244 -1.5030052813841235 2.0464132195490525
H 1.8288997239440858 -2.3716072364239786 -0.7348250288528763
H 3.9564180767711075 -1.2941459538915001 -1.3051557744828794
H 5.590689800050503 0.40740759420431544 -0.7027944337122245
H 5.151564394329602 1.7712921093903977 0.2017455827958968
H 0.8387775803151715 0.9401616297895354 1.8417127762933652
H -2.0749819030522723 0.004031250941735926 2.2253605937021


--Link1--
%nprocshared=4
%mem=8GB
%Oldchk=IBOFVQJTBBUKMU-UHFFFAOYSA-N_conf_4_0.chk
%Chk=IBOFVQJTBBUKMU-UHFFFAOYSA-N_conf_4_1.chk
# freq B3LYP/6-31G** SCRF=(Solvent=water) volume NMR pop=NPA density=current Geom=AllCheck Guess=Read


--Link1--
%nprocshared=4
%mem=8GB
%Oldchk=IBOFVQJTBBUKMU-UHFFFAOYSA-N_conf_4_1.chk
%Chk=IBOFVQJTBBUKMU-UHFFFAOYSA-N_conf_4_2.chk
# TD(NStates=10, Root=1) B3LYP/6-31G** SCRF=(Solvent=water) volume pop=NPA density=current Geom=AllCheck Guess=Read



