%nprocshared=4
%mem=8GB
%Chk=IBOFVQJTBBUKMU-UHFFFAOYSA-N_conf_3_0.chk
# opt=CalcFc B3LYP/6-31G** SCRF=(Solvent=water) scf=xqc 

IBOFVQJTBBUKMU-UHFFFAOYSA-N_conf_3

0 1
N 4.630939747279511 -1.5760232852349898 0.6849951189727911
C 3.5713510770446883 -0.6698334610699749 0.4963996572940193
C 2.658354290438631 -0.465430363395779 1.5354715051970396
C 1.5249101848187572 0.3336724377459816 1.3500890763528135
C 1.2592662090813187 0.9201919564034982 0.10577718771441169
C 0.025628952120154154 1.7685062825199847 -0.09841440232693865
C -1.241390737574423 0.9606166330609556 -0.2556358577580215
C -1.53323163136972 0.3177834444093277 -1.4657919069835046
C -2.7005929314045822 -0.4400405945472198 -1.608438483435665
C -3.5832031955398223 -0.608462085811432 -0.537214390425815
N -4.803594538532247 -1.2747137521842238 -0.754496071711005
C -3.3108039177802007 0.0774351361468576 0.6590306038679717
Cl -4.396848970243978 -0.027970561794974792 2.0025274374627564
C -2.145435982491237 0.8363506612005255 0.8073800287587409
C 2.1406106752435647 0.6750597678621979 -0.9553053803308711
C 3.271529764573569 -0.12532240036681802 -0.7643214352882518
Cl 4.316875919198933 -0.4028347957463344 -2.115545754703973
H 5.363381358806194 -1.4703525095497398 -0.014271738386156838
H 4.990213228281163 -1.6060696940381347 1.633177895668148
H 2.818327792829871 -0.9352637134568929 2.5027701164628122
H 0.8403867819826814 0.479161729585987 2.183421954204089
H -0.07054772228868895 2.464743254153913 0.7453955717486337
H 0.14982123778144446 2.4125539090046195 -0.9791965580854382
H -0.8570932168248556 0.40857719937915615 -2.3135515350606104
H -2.9151611950387384 -0.8999074143512891 -2.569922682695812
H -5.248063431842758 -1.5634547840361026 0.11490048987269065
H -4.751001213310426 -2.0231961447282374 -1.4374632268251344
H -1.9482871686822587 1.3356457246132356 1.7528305799744412
H 1.9436586334433992 1.0985774242258828 -1.937137588570284


--Link1--
%nprocshared=4
%mem=8GB
%Oldchk=IBOFVQJTBBUKMU-UHFFFAOYSA-N_conf_3_0.chk
%Chk=IBOFVQJTBBUKMU-UHFFFAOYSA-N_conf_3_1.chk
# freq B3LYP/6-31G** SCRF=(Solvent=water) volume NMR pop=NPA density=current Geom=AllCheck Guess=Read


--Link1--
%nprocshared=4
%mem=8GB
%Oldchk=IBOFVQJTBBUKMU-UHFFFAOYSA-N_conf_3_1.chk
%Chk=IBOFVQJTBBUKMU-UHFFFAOYSA-N_conf_3_2.chk
# TD(NStates=10, Root=1) B3LYP/6-31G** SCRF=(Solvent=water) volume pop=NPA density=current Geom=AllCheck Guess=Read



